%chk=[C]1NNCNdNN2CdCCdCC2dNS1.chk
%NProcShared=20
# opt freq b3lyp/6-31g(2df,p)

Title Card Required 

0  1
C           2.52840        -0.63165        -1.55058
N           2.39140        -0.53905        -0.07039
N           3.33719        -1.56838         0.18468
C           4.70470        -1.08691        -0.05310
N           5.43957        -2.27542        -0.36455
N           6.32943        -2.02470        -1.17587
N           6.40056        -3.14920        -1.88210
C           7.35902        -4.06462        -1.41066
C           7.61013        -5.31010        -1.93550
C           6.85060        -5.64268        -3.09584
C           5.77694        -4.90737        -3.51626
C           5.30637        -3.50564        -2.75798
N           4.09440        -2.94464        -3.04701
S           3.31084        -1.28775        -3.01552
H           2.52957         0.24138         0.60468
H           3.21600        -2.24005        -0.60418
H           5.13046        -0.65131         0.83619
H           4.82270        -0.35338        -0.88248
H           7.90339        -3.77638        -0.53007
H           8.37146        -5.95426        -1.50914
H           7.26284        -6.51547        -3.61992
H           5.35130        -5.16462        -4.47656

