%chk=[C]dCdCCCC1CdCCdCCdCCdC1.chk
%NProcShared=20
# opt freq b3lyp/6-31g(2df,p)

Title Card Required 

0  1
C           1.15161         0.02380        -0.07787
C           2.48275        -0.06272        -0.02277
C           3.80787        -0.12421        -0.01390
C           4.68589        -1.14284         0.83844
C           6.40970        -1.23682         0.59449
C           7.80655        -2.29069         1.36567
C           8.54204        -1.03589         1.52905
C           9.27210        -1.19041         2.68072
C          10.64344        -1.03782         2.43619
C          11.42571        -1.76884         3.27052
C          12.67692        -2.23265         2.77104
C          12.32592        -3.52030         2.57065
C          10.86085        -3.82081         1.71709
C           9.39870        -3.40114         1.24569
H           4.28087         0.62184        -0.64638
H           4.24611        -2.11520         0.61450
H           4.42727        -0.86155         1.87690
H           6.59046        -0.18540         0.94057
H           6.52971        -1.19988        -0.48810
H           7.27395        -2.51875         2.31043
H           8.81591        -0.50304         0.64084
H           8.94856        -2.03465         3.31188
H          10.98021        -0.94639         1.39423
H          10.88442        -2.54663         3.86353
H          13.02970        -1.66577         1.89870
H          12.86752        -4.14270         3.33370
H          11.70033        -4.01071         0.95915
H           8.82813        -4.33106         1.16349

