%chk=[C]dCCCdNCC1CC12CdCCdCC2O.chk
%NProcShared=20
# opt freq b3lyp/6-31g(2df,p)

Title Card Required 

0  1
C           1.06782         0.05972         0.01972
C           2.40447         0.09306        -0.04165
C           3.17854         0.75855        -1.13177
C           4.66200         0.61067        -0.90982
N           5.47246         1.11263        -1.76647
C           6.88347         0.88934        -1.46794
C           7.59732         1.49025        -2.61991
C           9.01006         1.95509        -2.54969
C           7.85296         2.98080        -2.71871
C           7.66166         3.91735        -1.57081
C           7.47079         5.24064        -1.72536
C           7.37155         5.83192        -3.04283
C           7.33252         5.06823        -4.13736
C           7.46142         3.57116        -4.08883
O           6.19149         3.06028        -4.50814
H           2.94179        -0.39949         0.76291
H           2.95051         1.82999        -1.17520
H           2.94139         0.31297        -2.10521
H           5.02147         0.07297        -0.01509
H           7.12057        -0.17917        -1.42565
H           7.16981         1.34705        -0.51585
H           7.33215         0.96895        -3.53751
H           9.64155         1.69216        -3.39419
H           9.49956         1.73777        -1.60282
H           7.66774         3.52604        -0.55699
H           7.34805         5.90058        -0.87117
H           7.27588         6.91366        -3.11661
H           7.18970         5.51072        -5.11999
H           8.19813         3.25536        -4.83110
H           5.53521         3.40741        -3.87722

