%chk=[CH]NqCrC1dCCqdNCrNdCCdCCdC1.chk
%NProcShared=20
# opt freq b3lyp/6-31g(2df,p)

Title Card Required 

0  1
C           1.27202        -0.09935         0.20638
N           3.02643        -0.14118         0.73721
C           3.27461         0.24605        -1.03301
C           4.42490        -0.41325         2.09229
C           4.78038        -0.84755         0.86732
C           5.21342        -1.32719         2.11956
N           4.40297        -1.73458         3.56660
C           2.83589        -1.25434         3.77155
N           6.65286        -0.70390         1.78058
C           7.25953        -1.30330         2.72815
C           8.70193        -1.06527         3.03730
C           9.05232        -1.47074         4.54826
C           7.48412        -0.67801         4.51562
C           5.69786        -0.34175         3.70102
H           0.58244         0.15585        -0.75902
H           2.43739         0.48048        -1.84537
H           3.79877        -0.57460        -1.50578
H           3.80223         1.17981        -0.99710
H           5.07998         0.05215         0.28772
H           2.60688        -1.49981         4.81183
H           2.61083        -1.95104         2.99230
H           2.64385        -0.15269         3.55733
H           6.52625        -1.90216         4.03725
H           9.55974        -0.82248         2.50070
H           9.00987        -1.80839         5.75089
H           9.04170        -1.18906         4.48340
H           4.39897        -0.19706         3.03684

