%chk=[N]OC1dCCC2dCCNNqOrC2dCCdCCdCCdC1.chk
%NProcShared=20
# opt freq b3lyp/6-31g(2df,p)

Title Card Required 

0  1
N           1.88645        -1.01679        -0.58425
O           2.75805        -2.15962         0.03934
C           4.06569        -2.78131        -0.74779
C           4.74132        -1.59295        -1.08632
C           5.42620        -1.52985        -2.35284
C           6.83778        -1.24247        -2.05328
C           7.27151         0.00147        -1.87695
C           8.71167         0.23466        -1.65095
N           9.63342        -0.86427        -1.44499
N           9.09988        -2.07365        -1.63985
O           9.99273        -3.09330        -1.44304
C           7.76855        -2.32618        -1.83996
C           7.35930        -3.58629        -1.89600
C           8.22163        -4.66065        -1.64745
C           7.78827        -5.77090        -2.29687
C           7.86086        -6.99509        -1.74009
C           6.48255        -7.22130        -1.73985
C           5.19843        -5.94576        -1.61828
C           4.39862        -4.47344        -1.31290
H           4.61723        -0.62183        -0.58379
H           4.97301        -0.86887        -3.10890
H           5.23456        -2.49605        -2.78016
H           6.61334         0.86284        -1.94365
H           8.79666         0.85260        -0.76263
H           9.04429         0.73953        -2.55414
H           9.93121        -0.86642        -0.47892
H          10.84846        -2.67244        -1.38401
H           6.34648        -3.81441        -2.16730
H           9.18149        -4.81728        -1.24246
H           6.95518        -5.59450        -2.92445
H           8.88015        -7.46071        -1.70859
H           6.34000        -8.33202        -1.88314
H           5.46621        -6.44279        -0.65807
H           3.75557        -4.28758        -2.19087

