%chk=c1cc2c[nH][nH]c-2ccc2c3cc-3cc2c1.chk
%NProcShared=20
# opt freq b3lyp/6-31g(2df,p)

Title Card Required 

0  1
C           1.78657         0.81752         0.60333
C           2.49287        -0.03882        -0.19585
C           3.32301        -1.05409         0.51565
C           3.09674        -2.38811         0.63265
N           4.01424        -2.96305         1.49295
N           4.88086        -1.99879         1.91855
C           4.56579        -0.76484         1.35234
C           5.20470         0.43784         1.46497
C           4.99842         1.66780         0.53500
C           4.45459         2.91294         0.60638
C           4.83897         4.39724         0.36363
C           4.52126         5.58589         0.79580
C           4.69353         4.88149         1.89933
C           3.99998         3.86263         2.51471
C           3.30190         2.97062         1.47074
C           2.08983         2.32652         1.15160
H           0.85748         0.35361         0.96740
H           3.17215         0.37425        -0.95031
H           2.31635        -2.99369         0.19238
H           4.22876        -3.95932         1.44120
H           5.77833        -2.18349         2.35851
H           6.01196         0.53550         2.19095
H           4.00424         1.22917         0.53980
H           4.47355         6.68422         0.66353
H           4.89212         3.40802         3.04875
H           1.57870         2.76216         0.25234

