%chk=c1cccccn[nH]c2scd2ccccc1.chk
%NProcShared=20
# opt freq b3lyp/6-31g(2df,p)

Title Card Required 

0  1
C           1.79222        -1.03928        -1.55238
C           2.61591        -0.37822        -0.47933
C           3.84094        -0.65523        -0.92898
C           5.16039        -0.56931        -0.78951
C           5.72874        -1.20150        -1.81570
C           7.12952        -1.18980        -1.79671
N           7.65512        -1.78582        -2.76419
N           8.92915        -1.90195        -2.95270
C           9.33970        -2.57729        -4.04893
S          10.75867        -2.93913        -4.63627
C           8.87621        -3.25466        -5.14846
C           7.33877        -3.17615        -5.02101
C           6.07130        -3.47564        -5.50714
C           4.50029        -3.00637        -4.74547
C           3.23425        -2.56215        -4.02432
C           2.10435        -1.79872        -2.78514
H           0.75433        -0.82094        -1.19796
H           2.49676         0.19265         0.44733
H           3.71567        -1.20224        -1.81689
H           5.64304        -0.07210         0.01758
H           5.18301        -1.69243        -2.61259
H           7.62788        -0.69255        -0.98955
H           9.60223        -1.50492        -2.30822
H           7.05171        -2.65988        -4.18299
H           6.15321        -4.05858        -6.45340
H           5.21561        -2.58812        -4.06651
H           2.45337        -2.97490        -4.69434
H           1.05580        -1.97316        -3.06828

