%chk=c1ccccc2c3ccccn-2c-3cccc1.chk
%NProcShared=20
# opt freq b3lyp/6-31g(2df,p)

Title Card Required 

0  1
C           1.31296        -0.11678         0.07796
C           2.45431         0.55810        -0.36421
C           3.09531         0.17000        -1.46755
C           4.48384         0.46496        -1.41028
C           5.33128        -0.02624        -2.32012
C           6.73261        -0.38096        -1.84666
C           7.37109        -0.68463        -0.63357
C           8.91711        -1.09390        -0.33566
C           9.90765        -1.13413        -1.25331
C           9.60362        -0.87422        -2.62335
C           8.35470        -1.18023        -3.04614
N           7.09954        -1.56711        -2.28787
C           6.59301        -1.86165        -0.93513
C           5.25047        -2.24245        -0.36647
C           4.24928        -1.69775         0.91624
C           2.86306        -1.81562         1.15590
C           1.60137        -0.91467         1.11556
H           0.39810        -0.15194        -0.51743
H           3.00440         1.04126         0.44887
H           2.65354        -0.56993        -2.13230
H           4.91569         0.74110        -0.45033
H           4.94335        -0.61439        -3.15406
H           9.13041        -1.50514         0.64167
H          10.93253        -1.44625        -1.04135
H          10.38165        -0.39795        -3.23978
H           8.11284        -0.73619        -4.02737
H           4.56154        -2.62229        -1.11961
H           4.69177        -2.35932         1.69550
H           2.40535        -2.78158         0.91593
H           0.87515        -0.80336         1.93672

