%chk=C1dCc2cccc3c2ncn3NdNNdC1.chk
%NProcShared=20
# opt freq b3lyp/6-31g(2df,p)

Title Card Required 

0  1
C           1.69020         0.58066        -0.70009
C           2.57594         0.27724         0.28157
C           3.62057         1.33233         0.44931
C           3.10755         2.60513         0.80523
C           3.68741         3.76697         0.31275
C           4.85556         3.71622        -0.44701
C           5.30104         2.44468        -0.85098
C           4.78927         1.22850        -0.37443
N           5.27545         0.15803        -1.13932
C           5.90223         0.73833        -2.16341
N           5.60980         2.08383        -2.16111
N           4.98076         2.69200        -3.22893
N           3.76041         2.33268        -3.41213
N           2.92517         2.19890        -2.24495
C           2.36318         1.04896        -2.03282
H           0.88497         1.26836        -0.40011
H           3.05765        -0.70554         0.26252
H           2.08795         2.67782         1.18681
H           3.09624         4.68381         0.30704
H           5.12235         4.58858        -1.04146
H           6.34381         0.27152        -3.02849
H           2.43217         0.21632        -2.75210

