%chk=C1dCCC2dNCdCCdC3CdCC3dCC2dC1.chk
%NProcShared=20
# opt freq b3lyp/6-31g(2df,p)

Title Card Required 

0  1
C           0.77185         0.79385        -0.00607
C           1.40062        -0.36089         0.00884
C           0.45496        -1.37984         0.00599
C          -0.94827        -1.10787        -0.15799
N          -1.54090        -2.15101         0.04208
C          -1.06089        -3.30084        -0.00230
C          -1.95302        -4.13860         0.15322
C          -2.07066        -5.42150         0.05110
C          -3.39430        -5.49485         0.04714
C          -5.19696        -5.50932         0.02186
C          -4.22841        -6.22497        -0.17390
C          -4.16202        -4.12661        -0.18951
C          -3.54058        -2.33867        -0.16045
C          -2.28102        -0.65995        -0.05929
C          -1.06390         0.59208         0.01275
H           1.61276         1.60727        -0.00289
H           2.41013        -0.72413         0.00068
H           0.53155        -1.96714         0.92242
H           0.52571        -1.86236        -0.97243
H          -0.14487        -3.67782        -0.04195
H          -2.72422        -3.67968         0.68536
H          -1.22779        -6.06605         0.02317
H          -6.19441        -5.34995         0.12559
H          -4.90009        -7.46787         0.00297
H          -3.83268        -1.08752        -0.08951
H          -0.84889         1.92213         0.02857

