%chk=C1dCCdCNSCdCCdNCdCNdCNdCCdC1.chk
%NProcShared=20
# opt freq b3lyp/6-31g(2df,p)

Title Card Required 

0  1
C           4.58914         2.37143        -2.43999
C           3.41696         0.91809        -1.00633
C           4.04451         0.16023        -0.25874
C           4.75861         0.84115        -0.93044
N           5.69943         1.52630        -1.60630
S           7.09214         1.71524        -1.79268
C           7.90750         2.85988        -2.92182
C           9.01425         3.06301        -3.12219
C           9.39533         3.83231        -3.88107
N          10.72634         4.07975        -4.12516
C          11.19683         4.93802        -4.97181
C          12.59074         4.98974        -5.02283
N          11.80143         5.32718        -5.35569
C          13.35475         6.09365        -6.11177
N          13.82079         6.87246        -6.88004
C          11.82863         6.22822        -6.24452
C           9.23687         4.89935        -4.93365
C           7.00544         3.74826        -3.79816
H           2.64334         1.60977        -1.68864
H           2.89763        -0.52208         0.41433
H           3.40458         1.17376        -1.25854
H           5.07029         0.17489        -0.27320
H           5.64815         2.50032        -2.56712
H           7.72043         4.20112        -4.24489
H           9.58764         2.56072        -2.62671
H           8.27811         4.68124        -4.71851
H           9.85240         5.81124        -5.83319
H          13.33061         4.87977        -4.91434
H          14.94475         5.99462        -6.01409
H          14.06515         6.72593        -6.73549
H          10.73056         6.00579        -6.02511
H           5.15477         3.25543        -3.31200

