%chk=C1dCCdC2CdS2CdNCCSCdCSCdC1.chk
%NProcShared=20
# opt freq b3lyp/6-31g(2df,p)

Title Card Required 

0  1
C           1.51570         0.95564         2.70504
C           1.85102         0.40032         1.15248
C           2.72074        -0.20770        -0.39475
C           4.05744        -0.33995        -0.74335
C           5.07247        -0.69107        -1.65340
S           5.60908        -0.02880         0.06716
C           4.67793         0.55314         1.58011
N           5.12199         0.99186         2.72012
C           4.02355         1.37134         3.70635
C           4.89998         1.79730         4.81359
S           4.01235         2.28487         6.08023
C           4.74211         2.84261         7.53097
C           3.81111         3.19263         8.44290
S           2.02335         3.09010         8.18328
C           1.44632         2.31170         6.18604
C           1.36556         1.71747         4.54244
H           0.51050         0.80928         2.24571
H           2.85503         0.28419         0.87292
H           2.27195        -0.58612        -1.38219
H           5.34611        -1.10822        -2.73856
H           3.68337         0.67023         1.88492
H           3.35416         0.52327         4.03642
H           3.35376         2.22150         3.38227
H           5.34651         2.74930         4.62462
H           5.34645         0.96409         5.31148
H           5.78913         2.90448         7.69136
H           3.18887         2.90573         7.68830
H           0.74727         2.69157         7.12542
H           0.31164         1.60095         4.29666

