%chk=C1dCSc2ccccccccc2CdC[SH]d1.chk
%NProcShared=20
# opt freq b3lyp/6-31g(2df,p)

Title Card Required 

0  1
C           1.44326         0.40791         0.09313
C           2.70996         0.28908         0.06572
S           4.33831         1.32784         0.80805
C           6.62297         0.93017         0.53481
C           6.09200         2.03799         1.37396
C           7.25199         2.36650         1.34914
C           8.13368         3.04942         1.91753
C           9.34389         2.86210         1.83110
C          10.31221         3.55695         2.37002
C          10.74546         2.51106         1.67605
C          11.92270         2.76950         1.83020
C          10.67127         1.54576         1.01752
C           8.47019         0.73900         0.38271
C           6.47128        -0.16686        -0.02974
C           4.72821        -1.00561        -0.50361
S           2.07665        -1.15553        -0.23707
H           3.25505        -0.16732        -0.73517
H           5.58331         2.83084         1.85880
H           8.04372         1.86218         1.43738
H           7.91429         3.74384         2.49647
H           9.28658         1.85199         1.10765
H          10.36796         4.41762         2.94092
H          12.11227         1.59605         1.04329
H          12.44105         4.04472         2.69690
H          12.10764         2.52170         1.59266
H           4.99400        -0.26032        -0.28755
H           4.96687        -2.01855        -1.42733
H           0.27854        -0.82816         0.20222

