%chk=C1dCOCdc2ncccccoc2dCC1.chk
%NProcShared=20
# opt freq b3lyp/6-31g(2df,p)

Title Card Required 

0  1
C           0.96315        -0.25180        -0.57822
C           2.61931         0.04503        -0.19999
O           3.67152        -0.39349        -0.85223
C           4.89305        -0.77187        -0.74040
C           5.47111        -1.68708        -1.56479
N           6.70891        -1.57276        -1.49754
C           7.17939        -2.31017        -2.35487
C           8.65780        -2.20012        -2.19843
C           9.15271        -3.06927        -3.11966
C          10.49111        -3.14682        -3.16605
C           9.54004        -3.78398        -3.79435
O           7.46003        -3.46504        -3.38660
C           5.39600        -2.75913        -2.60231
C           3.69188        -2.11699        -1.86848
C           2.09140        -1.13638        -0.51690
H           0.15815        -0.93929        -0.90381
H           2.86430         0.65536         0.70376
H           5.14159        -0.12102         0.00625
H           6.23504        -3.36399        -3.49886
H           9.44939        -1.70851        -1.67277
H           8.32926        -4.09465        -4.21401
H          11.40002        -2.78664        -2.80724
H          10.49042        -4.63929        -4.72952
H           2.94418        -2.67289        -2.65699
H           1.30781        -0.47711         0.77272
H           1.20632         0.23097         0.10201

