%chk=C1dCCdCCdCSNdCCdCCdCSCdCCdC1.chk
%NProcShared=20
# opt freq b3lyp/6-31g(2df,p)

Title Card Required 

0  1
C           5.74230        -1.51288        -0.68337
C           3.40100        -0.81692        -0.36328
C           4.04766        -1.74492        -0.79009
C           5.84913        -2.57133        -1.17018
C           5.10759        -3.02407        -1.37840
C           6.46729        -2.99152        -1.36343
S           7.39237        -4.13904        -1.89120
N           9.32945        -3.89363        -1.77834
C           9.87049        -4.71858        -2.15775
C          10.26038        -3.83356        -1.75071
C          11.67677        -5.29798        -2.42423
C          13.43883        -4.15397        -1.89807
C          12.90656        -5.40953        -2.47553
S          15.69971        -5.26271        -2.40801
C          16.42101        -6.36834        -2.91652
C          14.44722        -5.14235        -2.35266
C          11.60608        -3.97404        -1.81532
C           8.73256        -2.71154        -1.23466
H           3.22515        -1.14867        -0.51586
H           2.99717         0.81976         0.38947
H           2.57037        -2.16606        -0.98378
H           6.02031        -0.58232        -0.25538
H           4.57375        -3.37568        -1.54012
H           7.56573        -1.56765        -0.70856
H           9.68370        -5.44585        -2.49224
H          11.86854        -2.96369        -1.35063
H          12.02792        -6.17935        -2.82960
H          14.30289        -3.86651        -1.76586
H          14.27168        -6.64777        -3.04503
H          16.78952        -8.04733        -3.68873
H          16.81861        -5.72817        -2.62209
H          13.79058        -5.06186        -2.31564
H           6.74591        -1.72648        -0.78161

