%chk=C1dCCdCSCdCCdCCdNSCSCdCCdC1.chk
%NProcShared=20
# opt freq b3lyp/6-31g(2df,p)

Title Card Required 

0  1
C           6.27142        -1.08955        -1.33127
C           3.97281        -0.53453        -0.61912
C           3.69672        -1.35264        -1.66547
C           4.82356        -1.51664        -1.87301
S           5.43959        -2.29632        -2.85786
C           7.07979        -2.05270        -2.54983
C           8.00131        -2.56888        -3.20101
C          10.20054        -2.32468        -2.88559
C          10.33153        -2.92003        -3.64542
C          11.16442        -1.93547        -2.40373
N          11.01954        -3.19652        -3.99904
S          13.56694        -2.73908        -3.41836
C          13.92411        -3.53821        -4.42811
S          16.44404        -3.41382        -4.27029
C          16.86070        -4.23737        -5.31123
C          15.00388        -3.29819        -4.12224
C          11.97263        -2.65477        -3.30000
C           9.10647        -1.83200        -2.29394
H           3.93579        -0.63821        -0.75942
H           2.84274         0.51589         0.69793
H           2.53921        -1.45641        -1.79598
H           5.21125        -0.36690        -0.41897
H           7.79258        -0.96700        -1.17748
H           7.57049        -2.99959        -3.74671
H          10.05792        -1.40667        -1.72835
H           9.80942        -3.42431        -4.28359
H          12.27205        -1.87470        -2.32543
H          14.98858        -3.59147        -5.90062
H          14.98857        -4.95944        -4.81846
H          17.47263        -5.29421        -6.64727
H          17.31396        -3.90199        -4.88745
H          12.94182        -3.78252        -4.73385
H           7.09579        -1.32421        -1.64143

