%chk=C1dCCdCC2dCCdNC2dCCdC1.chk
%NProcShared=20
# opt freq b3lyp/6-31g(2df,p)

Title Card Required 

0  1
C           2.00810         0.08374         0.53167
C           2.35941        -0.72267        -0.48253
C           2.93143        -1.87887         0.17169
C           4.27105        -1.92611         0.15838
C           4.90017        -2.36440         1.32214
C           4.93598        -3.65757         1.71833
C           6.13847        -3.57217         2.53942
N           6.62143        -2.36608         2.74160
C           5.71588        -1.51935         2.09914
C           5.51276        -0.16554         2.08715
C           4.41379         0.79253         1.45667
C           3.11549         0.94806         0.98664
H           1.08701        -0.17979         1.06198
H           3.09075        -0.27790        -1.17693
H           2.44926        -2.23098         1.09276
H           4.86844        -1.19409        -0.40255
H           4.40089        -4.45742         1.27511
H           6.57092        -4.54589         2.85920
H           6.35806         0.39118         2.51718
H           4.95751         1.72822         1.28237
H           2.80754         1.92154         0.57610

