%chk=C1dCCdCCdCNdCCdNCdCCdCCdC1.chk
%NProcShared=20
# opt freq b3lyp/6-31g(2df,p)

Title Card Required 

0  1
C           4.13794         2.18946         0.07494
C           3.00967         0.57455         0.02660
C           3.47192         1.92288         0.06696
C           5.37115         2.47572         0.08351
C           5.45920         3.45563         0.11284
C           7.53840         2.43375         0.08225
N           7.50906         4.49867         0.14407
C           8.29226         3.29237         0.10796
C           8.15296         5.38830         0.17070
N          10.23262         4.45408         0.14273
C          10.41566         5.36385         0.16996
C          12.28130         5.98307         0.18850
C          12.85485         7.29194         0.22768
C          11.61649         5.72452         0.18076
C           9.07774         4.53411         0.14513
C           6.67783         3.37957         0.11057
H           2.21536         1.43937         0.05249
H           2.82566        -0.81397        -0.01497
H           2.36527         2.51747         0.08476
H           5.14829         0.58050         0.02678
H           4.47025         3.64463         0.11850
H           7.08379         1.65576         0.05896
H           9.21111         2.97416         0.09843
H           8.73533         6.21085         0.19532
H          10.63962         7.26931         0.22700
H          13.36545         5.36907         0.17012
H          12.93229         8.70303         0.26992
H          13.54728         6.44562         0.20235
H           9.98127         6.36899         0.20005
H           5.82477         1.49186         0.05406

