%chk=C1dNCdCSC2dNC2dc2cccnc2d1.chk
%NProcShared=20
# opt freq b3lyp/6-31g(2df,p)

Title Card Required 

0  1
C           4.07261         0.09522         1.11996
N           2.99469         0.34435         0.65089
C           2.94707         1.32512        -0.40390
C           4.08807         1.87672        -0.80411
S           5.17674         2.82242        -1.66924
C           6.57993         2.19885        -0.95443
N           7.80704         1.86142        -0.97991
C           7.04175         1.32734         0.14155
C           6.44034         0.09009         0.25187
C           6.00772        -0.60804        -0.97648
C           5.16289        -1.65333        -0.91030
C           5.06533        -2.27687         0.43746
N           5.37825        -1.66645         1.55033
C           5.37269        -0.27970         1.35741
H           1.97065         1.60507        -0.81169
H           4.74789         1.49942        -0.10783
H           5.60205         0.15700        -1.60704
H           4.19043        -1.48266        -1.38441
H           4.42623        -3.16880         0.50036

