%chk=C[SH]dCCCqCdSrc1cccs1.chk
%NProcShared=20
# opt freq b3lyp/6-31g(2df,p)

Title Card Required 

0  1
C           1.05133         0.09077        -0.07054
S           2.84438         0.09316        -0.34674
C           3.29787        -0.32491         1.33879
C           4.74903        -0.58609         1.63428
C           5.00450        -1.16818         3.04256
C           4.38462        -2.55865         3.25749
S           2.73999        -2.89782         3.31481
C           6.52432        -1.16911         3.31843
C           7.34589        -0.06127         3.47670
C           8.71685        -0.39705         3.69494
C           8.91408        -1.76050         3.70925
S           7.47181        -2.60669         3.41364
H           0.56639         0.44824        -0.98247
H           0.78535         0.75331         0.75736
H           0.71172        -0.92656         0.13968
H           3.07394         1.38793        -0.31128
H           2.55619        -0.30992         2.14819
H           5.24625         0.39057         1.54479
H           5.17292        -1.23222         0.85759
H           4.54940        -0.49545         3.78566
H           5.05942        -3.40663         3.41968
H           6.98802         0.96201         3.42278
H           9.51869         0.31422         3.83362
H           9.83797        -2.29775         3.86090

