%chk=C[SH]1CCNCqCdCCdOrC1dO.chk
%NProcShared=20
# opt freq b3lyp/6-31g(2df,p)

Title Card Required 

0  1
C           0.88219         0.05921         0.14528
S           2.63906         0.12768         0.28848
C           3.22909         1.15766        -1.02201
C           2.81688         0.62722        -2.40588
N           3.31376        -0.72590        -2.73013
C           2.80870        -1.78343        -1.82400
C           3.29838        -3.13776        -2.20057
C           3.00979        -3.66185        -3.39690
C           3.46677        -5.01175        -3.74371
O           3.21418        -5.49833        -4.83755
C           3.16619        -1.41806        -0.37706
O           3.86581        -2.08731         0.37873
H           0.47826         1.03623         0.40271
H           0.50850        -0.71677         0.81430
H           0.58643        -0.19105        -0.87547
H           3.15362         0.37670         1.50393
H           4.32128         1.17573        -0.93528
H           2.84229         2.16207        -0.83945
H           3.20492         1.31790        -3.16365
H           1.72754         0.65261        -2.52011
H           4.33381        -0.72453        -2.69362
H           1.71287        -1.80601        -1.86343
H           3.84760        -3.70747        -1.45260
H           2.44061        -3.11732        -4.14183
H           4.03986        -5.54885        -2.96987

