%chk=C[SH]qdOrdC1CdCdCCSCdNCdCdC1NS.chk
%NProcShared=20
# opt freq b3lyp/6-31g(2df,p)

Title Card Required 

0  1
C           1.12854        -0.08783        -0.05367
S           2.94932        -0.43048        -0.50644
O           3.41869        -0.26902         0.88904
C           4.11744        -2.02918        -1.66897
C           5.16768        -1.84938        -0.71945
C           5.79905        -2.92793        -0.74937
C           6.14998        -4.04285        -1.24984
C           6.97982        -4.01188        -2.47928
S           7.69912        -5.71444        -2.41356
C           8.49536        -5.67927        -3.98716
N           7.72698        -6.53698        -4.57771
C           6.46607        -5.50654        -4.90830
C           5.21787        -4.60181        -3.92926
C           4.17137        -3.62926        -2.97994
N           2.59135        -3.45878        -2.18512
S           0.89499        -3.54618        -1.85786
H           0.84081         0.93742         0.37726
H           0.70017        -0.77380         0.68635
H           0.61943        -0.10496        -1.00251
H           3.31532         0.82882        -0.87939
H           5.48254        -0.89080        -0.32557
H           5.50531        -4.89173        -1.00746
H           7.81851        -3.36707        -2.42338
H           6.52064        -3.39745        -3.33792
H           8.76098        -4.75467        -4.62767
H           7.54773        -5.50264        -5.85531
H           2.43289        -2.55720        -1.58950
H           0.47083        -4.78517        -1.77388

