%chk=CC12CdC3CdCCdC3CqdCqOrCCC1rCdCC2N.chk
%NProcShared=20
# opt freq b3lyp/6-31g(2df,p)

Title Card Required 

0  1
C           0.72089        -0.51157        -0.63103
C           2.24173        -0.33517        -0.31631
C           3.01434         0.23468        -1.58161
C           4.35498         0.48475        -1.70338
C           4.96126         0.87815        -2.98471
C           6.29316         0.81204        -2.82663
C           6.63295         0.46633        -1.47066
C           5.48447         0.42019        -0.68452
C           5.66717         0.14592         0.82165
C           4.82027         0.53571         1.88365
O           4.58927         0.05896         3.16286
C           3.55289         0.68528         1.29163
C           2.00193         0.31391         1.94126
C           1.77093         1.12812         0.75457
C           6.04481        -1.18928         1.08518
C           4.94118        -2.00717         1.13674
C           3.25233        -1.85226         0.46739
N           2.58393        -2.54386         1.62004
H           0.27789         0.51113        -0.65433
H           0.18056        -1.01077         0.17990
H           0.44928        -0.91924        -1.59759
H           2.36803         0.49172        -2.43292
H           4.44684         1.17842        -3.88753
H           7.05572         1.05537        -3.55879
H           7.61172         0.31945        -1.07675
H           4.49857        -0.90927         3.20335
H           3.74197        -0.07474         0.58298
H           3.70270         1.52455         0.56105
H           1.63973        -0.70665         1.82346
H           0.90638         0.58684         2.03772
H           2.17816         1.84410         1.64215
H           2.01639         2.11939         0.28991
H           7.00879        -1.17030         1.60044
H           5.08107        -2.52257         2.10896
H           3.33240        -2.57113        -0.35907
H           2.65995        -1.91442         2.42299
H           3.14228        -3.33545         1.94270

