%chk=Cc1c2c3cqcnc1dNrCqdC2rCdCNdCC3.chk
%NProcShared=20
# opt freq b3lyp/6-31g(2df,p)

Title Card Required 

0  1
C           0.94573        -0.15944         0.20864
C           2.69798        -0.45224         0.46973
C           4.14026        -0.94227         0.67092
C           5.52974        -0.12531         1.37462
C           5.11209        -0.31765         2.67601
C           3.80736        -0.57683         3.25835
N           2.82320        -0.06385         2.51102
C           3.11874         0.78958         1.04494
N           3.07597         0.78571        -0.32659
C           5.45017        -1.68505         2.51195
C           4.53853        -2.20231         1.43712
C           6.76134        -1.49380         3.43076
C           7.98896        -0.75737         3.44351
N           8.79092        -1.77849         3.49724
C           8.70457        -1.84225         2.13077
C           7.22788        -0.70149         1.13844
H           0.37105        -0.45891         1.08269
H           0.52933        -0.60544        -0.71748
H           0.58747         0.93807         0.05354
H           4.04243        -1.58979         4.15530
H           3.27130         1.18347        -1.29967
H           3.35020        -2.15556         1.47248
H           6.71737        -2.02840         4.35924
H           8.74080        -0.01938         2.65903
H           9.85969        -1.68423         2.34950
H           7.11927        -1.21317         0.23603
H           7.52069         0.32962         0.98881

