%chk=CC1CdNCdCCdCCdCdCqCdNrNqSrNdC1.chk
%NProcShared=20
# opt freq b3lyp/6-31g(2df,p)

Title Card Required 

0  1
C           2.05235         0.37829        -0.42983
C           4.05678         0.96978        -0.62423
C           3.31546         1.94548         0.10138
N           4.39162         2.19765         0.63485
C           4.73014         3.42822         0.42053
C           6.02492         3.62490         0.53733
C           6.48886         4.91070         0.33690
C           7.74678         5.18462         0.52623
C           8.22803         6.51935         0.39964
C           9.46729         6.60785         0.20771
C          10.25976         5.60307        -0.04377
C          11.38868         6.55385         1.28961
N          11.09906         7.11000         2.49307
N           9.13411         4.33070        -0.98938
S          10.23270         5.44480        -2.39638
N           7.51187         3.00577        -1.26505
C           5.99716         2.00533        -1.14529
H           1.29062         0.62517         0.63328
H           1.39220        -0.75566        -0.26768
H           1.12550         0.73980        -1.06675
H           3.92702         0.01297         0.22102
H           2.29014         2.37777        -0.06631
H           3.96191         4.09031         0.10559
H           6.75480         2.77336         0.59627
H           5.79803         5.68215         0.16529
H           8.40974         4.28984         0.62919
H           7.61691         7.36009         0.26512
H          12.57343         7.12775         1.21690
H          10.12572         6.94972         2.70573
H           9.50924         6.61244        -2.40886
H           5.87178         1.10485        -1.92700

