%chk=Cc1cc2cqcccc3cqc1rdCCdCCdC3rdN2.chk
%NProcShared=20
# opt freq b3lyp/6-31g(2df,p)

Title Card Required 

0  1
C           2.28498         0.04143        -0.07619
C           4.52999         0.21368        -0.59317
C           3.10241         0.51191        -1.18152
C           4.37666         0.63805        -1.26700
C           5.30114         0.76163        -1.92181
C           6.57230         1.22568        -2.73259
C           7.09925         1.59331        -3.75437
C           8.79094         1.29600        -3.04044
C           9.20475         1.89487        -4.50900
C           8.51209         1.14593        -2.73086
C           6.57353         0.47002        -1.30752
C          10.31541         1.56009        -3.76110
C          12.23511         1.97297        -4.76574
C          13.42325         2.42028        -6.11387
C          12.21612         2.89859        -6.25918
C          10.49682         2.41697        -6.01521
N           6.03802         0.15522        -0.10342
H           0.92995         0.36096        -0.82959
H           1.02523         0.55888         0.78768
H           1.02482        -0.93189         0.16121
H           2.63264         0.86834        -2.04002
H           7.81634         0.71831        -1.62705
H           6.89521         1.94354        -4.60165
H           9.96562         0.93713        -2.20908
H           4.94865         0.07414        -0.27346
H          11.33111         2.03722        -4.76510
H          13.63747         1.93449        -4.58960
H          13.49614         3.14790        -7.49842
H          13.89395         2.70092        -6.27093
H           9.21240         2.64145        -6.14453

