%chk=CC1CdCCdCC2dCC2qCdOrC1.chk
%NProcShared=20
# opt freq b3lyp/6-31g(2df,p)

Title Card Required 

0  1
C           0.93430         0.14987         0.02906
C           2.46110         0.09919        -0.00872
C           2.80263        -1.34344        -0.25720
C           3.99492        -1.93216        -0.32423
C           5.28942        -1.35991        -0.53290
C           5.85539        -0.19178        -0.20676
C           5.30281         1.04610         0.30444
C           4.91798         2.27541         0.02672
C           4.41613         1.48699        -0.97743
C           5.18516         1.52672        -2.25298
O           5.19703         0.58173        -3.02303
C           2.93881         1.19372        -0.97844
H           0.52678        -0.65342         0.65342
H           0.53454         0.02773        -0.98437
H           0.58584         1.10006         0.43787
H           2.82038         0.32384         1.00454
H           1.96086        -2.03845        -0.23852
H           3.99707        -3.02439        -0.28572
H           5.88857        -2.01449        -1.17184
H           6.87541        -0.06211        -0.56957
H           4.68411         3.22075         0.47868
H           5.77188         2.44093        -2.45070
H           2.62163         0.96096        -2.00064
H           2.41345         2.12718        -0.71595

