%chk=CC1dNCdCC2dCCqdC3CdCCdC3C1rCdC2.chk
%NProcShared=20
# opt freq b3lyp/6-31g(2df,p)

Title Card Required 

0  1
C           1.83415        -0.31689         0.12146
C           3.77128        -0.52154        -0.24451
N           3.61090         0.33555        -1.21621
C           4.82064         0.74546        -1.39688
C           5.34214         1.05425        -2.54731
C           6.71961         1.07118        -2.55341
C           7.29923        -0.07752        -2.27077
C           8.57680         0.36951        -2.07314
C           9.02493        -0.17118        -0.98424
C          10.57711        -0.16007        -1.33517
C          10.94087        -1.29501        -0.81133
C           9.32607        -1.89326        -0.17555
C           7.82865        -1.17786        -0.05067
C           5.68498        -1.00170         0.32071
C           8.94364         1.58466        -2.68778
C           7.71443         2.06121        -2.87614
H           1.27227         0.16265        -0.83944
H           1.29772         0.49210         0.75229
H           1.11119        -1.16798         0.14208
H           5.43064         0.75817        -0.52130
H           4.75428         1.18321        -3.40707
H           6.97664        -1.06642        -1.97807
H          11.27801         0.46970        -2.00670
H          12.12145        -1.50141        -1.01128
H           9.99928        -2.81081        -0.09924
H           5.51920        -0.22973         1.18180
H           5.15871        -1.81049         0.95329
H           9.90492         2.05833        -2.81156
H           7.44221         3.00814        -3.24705

