%chk=CC1dCNdCCdCCdCC2CCCqdOrONN2CCdCCdC1.chk
%NProcShared=20
# opt freq b3lyp/6-31g(2df,p)

Title Card Required 

0  1
C           1.41716         0.39949        -0.02892
C           3.10873         1.51475        -0.10683
C           3.52889         1.21706        -1.34032
N           4.97590         0.90880        -1.16105
C           5.77647         1.88992        -1.43380
C           7.08614         2.00853        -0.83991
C           7.71837         3.09623        -1.18943
C           9.09371         3.09602        -1.12387
C           9.82412         4.10352        -1.47017
C          11.21721         4.35818        -1.57241
C          11.69577         3.14210        -2.31176
C          13.18521         3.07512        -2.28933
C          13.71712         4.02179        -3.32713
O          13.88818         3.65724        -4.49213
O          13.98705         5.30785        -2.86938
N          13.00465         5.85674        -1.85453
N          11.50487         5.60266        -2.28564
C          10.34454         6.72317        -1.79972
C           8.42243         6.23583        -2.10781
C           7.03340         5.63691        -1.19311
C           5.43733         4.46810        -0.82090
C           4.35596         3.06093        -0.12915
H           0.59831         1.02874        -0.38482
H           0.85405        -0.06767         0.93437
H           0.92783        -0.62246        -0.68540
H           2.64226         2.06987        -1.13878
H           5.27009         2.73410        -1.94839
H           7.48185         1.13461        -0.39690
H           7.18445         3.84545        -1.70865
H           9.55532         2.21602        -0.83201
H           9.17031         4.84015        -1.55707
H          11.57528         4.36613        -0.54466
H          11.29211         3.15426        -3.33411
H          11.30088         2.25565        -1.80359
H          13.48672         2.04235        -2.49756
H          13.58975         3.32656        -1.30756
H          13.25724         6.85459        -1.81960
H          10.90267         7.61801        -2.31635
H          10.68917         6.86968        -0.75591
H           8.89738         5.77848        -3.04537
H           7.24323         6.88973        -1.21703
H           5.31094         5.13302        -1.79111
H           4.47135         1.82161         0.50822

