%chk=CC1dCOCqCdNrN2CqdCCdC1rCdCNN2C.chk
%NProcShared=20
# opt freq b3lyp/6-31g(2df,p)

Title Card Required 

0  1
C           1.14569        -0.23450         0.08586
C           2.62150        -0.13960         0.39935
C           3.02156         1.00542         0.97319
O           4.31971         1.38880         0.86315
C           5.06326         1.50251         2.04044
C           4.77156         0.82473         3.41685
N           3.62179         0.76185         4.01902
N           6.47678         1.18537         1.72855
C           6.90426        -0.15051         1.43721
C           6.11023        -1.25057         1.20893
C           4.62433        -1.32237         1.10953
C           3.75955        -1.06262         0.08004
C           8.37744        -0.32777         1.45015
C           9.17491         0.73630         1.42049
N           8.72606         2.02850         1.45141
N           7.39182         2.32335         1.70445
C           7.34434         3.05993         2.98294
H           0.57316         0.35525         0.82281
H           0.72667        -1.23981         0.10069
H           0.90554         0.23702        -0.88033
H           2.38179         1.76214         1.39555
H           4.94898         2.56416         2.25516
H           5.64235         0.40251         3.95218
H           2.89184         1.18847         3.44461
H           6.58185        -2.23340         1.27261
H           4.18597        -1.28988         2.10619
H           4.04141        -1.08055        -0.97227
H           8.82340        -1.31974         1.41513
H          10.26077         0.66748         1.33370
H           9.39010         2.78658         1.32946
H           7.97633         3.95361         2.93690
H           7.65555         2.43896         3.82908
H           6.34738         3.45073         3.20341

