%chk=CC1dCOCqdOrOC2dCCd[C-]CdCC1dCNdCCdC2.chk
%NProcShared=20
# opt freq b3lyp/6-31g(2df,p)

Title Card Required 

-1  1
C           1.98430        -1.60475        -1.07581
C           3.44425        -3.27166        -2.16787
C           3.42772        -1.68104        -1.12579
O           4.67864        -0.91027        -0.62082
C           5.62059        -1.62781        -1.09092
O           4.84407        -2.28942        -1.52437
O           6.92143        -1.87681        -1.25405
C           7.63592        -2.92688        -1.94199
C           8.90882        -3.01152        -1.99744
C           9.69189        -3.89838        -2.57846
C          10.75350        -4.36238        -2.88245
C           9.26876        -5.51050        -3.63463
C           7.26544        -5.66622        -3.73665
C           4.85991        -4.90669        -3.23904
C           3.81485        -5.83112        -3.84468
N           4.40300        -4.75418        -3.13913
C           6.07861        -4.22303        -2.79116
C           5.85549        -3.30852        -2.19202
C           6.91703        -3.82171        -2.52823
H           1.45870        -0.24946        -0.18790
H           0.95652        -1.26854         0.13552
H           0.95652        -0.35994        -1.25134
H           2.94424        -2.40006        -1.59685
H           9.39158        -2.28897        -1.52407
H           8.83901        -4.30490        -2.84479
H          10.80760        -6.08934        -4.01385
H           8.96096        -5.66699        -3.73715
H           3.25134        -6.92727        -4.56281
H           5.92073        -5.65435        -3.72887
H           4.91163        -3.54879        -2.34943
H           7.28722        -4.57848        -3.02402

