%chk=CC1dCCdCCdCCdCOCCCdCCdCCdC1.chk
%NProcShared=20
# opt freq b3lyp/6-31g(2df,p)

Title Card Required 

0  1
C           3.71787         0.63916        -0.50199
C           6.50636         1.38013        -1.00174
C           4.36356         1.31856        -0.96017
C           5.33231         0.87241        -0.65924
C           5.37292         2.32720        -1.64040
C           7.31952         2.40833        -1.69512
C           7.72371         3.24598        -2.26008
C           9.25385         3.59261        -2.49388
C           9.90691         4.39573        -3.03549
O          10.25590         3.62770        -2.51723
C          11.62317         4.92468        -3.39218
C          13.21533         3.69707        -2.56249
C          13.26962         5.75286        -3.94924
C          14.88202         5.22439        -3.59611
C          15.02716         6.27353        -4.23282
C          13.96116         4.67761        -3.24266
C          11.61252         3.40655        -2.37344
C           9.13721         2.33077        -1.64321
H           1.71338         0.72384        -0.55904
H           1.94488         0.24663         0.38859
H           1.94488        -0.33356        -0.47167
H           2.81604         1.70231        -1.21895
H           5.31593         0.05941        -0.11092
H           4.73723         2.81778        -1.97127
H           8.61015         1.25467        -0.91708
H           7.06387         3.69354        -2.56192
H          10.39822         2.30843        -1.62777
H           9.22838         4.70784        -3.24600
H          11.71321         5.86474        -2.88428
H          11.71320         4.80597        -4.45415
H          13.73460         3.41436        -3.64296
H          13.73607         4.59249        -1.90326
H          13.61477         6.55865        -4.49525
H          16.23335         4.67072        -3.22116
H          15.85594         7.46724        -5.14733
H          15.95239         5.52665        -3.80119
H          12.99594         4.61372        -3.18263
H           7.66672         1.39240        -1.00943

