%chk=CC1dCNqCrCdC2NdCNdC2CCC1.chk
%NProcShared=20
# opt freq b3lyp/6-31g(2df,p)

Title Card Required 

0  1
C           1.49312        -0.28281        -0.20577
C           3.05522        -0.18340        -0.09544
C           3.30096         1.06261         0.50471
N           4.54177         1.57464         0.71064
C           5.37924         0.73747         0.13831
C           5.36803         2.54983         1.22485
C           6.73611         2.42906         1.15899
N           7.61988         3.37826         1.61965
C           8.80278         2.90414         1.36947
N           8.88979         1.67660         0.75298
C           7.64439         1.30535         0.59054
C           7.40392        -0.16551        -0.12972
C           6.25370        -1.43252        -0.65593
C           4.30667        -1.46130        -0.69396
H           1.02453         0.62958         0.23761
H           1.03425        -1.06601         0.40211
H           1.07094        -0.25033        -1.21673
H           2.54490         1.76314         0.82594
H           5.10494         0.02939        -0.55410
H           5.49564        -0.04836         0.92811
H           5.50284         1.11796        -0.89166
H           4.86165         3.39812         1.64655
H           9.72623         3.44322         1.63307
H           7.88604         0.08185        -1.08506
H           7.87380        -0.72546         0.68095
H           6.64568        -2.31025        -0.10628
H           6.66163        -1.62681        -1.67997
H           4.03921        -2.40326        -0.21546
H           4.11295        -1.50219        -1.78530

