%chk=CC1dCdCSCdCCdCqSrN1CS.chk
%NProcShared=20
# opt freq b3lyp/6-31g(2df,p)

Title Card Required 

0  1
C           0.99481         0.26021         0.04158
C           2.44677         1.43742        -0.08187
C           3.18464         1.39947        -1.15100
C           3.90666         2.40754        -1.42509
S           2.55064         3.72425        -1.26015
C           3.97824         4.63198        -1.60479
C           3.55172         5.74838        -1.05303
C           4.77194         5.72420        -0.07252
C           4.14286         4.42977         0.76425
S           4.15199         6.75978         0.95283
N           3.46006         2.37063         0.93608
C           3.39702         0.33250         0.89179
S           3.92889        -1.94661         0.63102
H           0.33986         1.04784        -0.19841
H           0.63353        -0.27434         0.97733
H           0.71984        -0.58291        -0.74020
H           4.88847         2.36418        -0.83579
H           5.20908         4.50310        -1.26535
H           2.58480         6.22385        -0.46614
H           5.50038         6.61224        -0.93981
H           4.47803         8.30620        -0.10210
H           2.70254        -0.59177        -0.05096
H           2.44712        -0.60800         1.33951
H           4.20060        -3.43534        -0.14083

