%chk=CC1dNCqdCS[SH]dNrCCCCd[SH]1.chk
%NProcShared=20
# opt freq b3lyp/6-31g(2df,p)

Title Card Required 

0  1
C           1.22144        -0.11860         0.00518
C           2.74099        -0.12387         0.04617
N           3.39117        -1.25207        -0.04547
C           4.72805        -1.26796        -0.38622
C           5.80116        -1.22525         0.45639
S           7.47013        -1.37675        -0.11739
S           8.68175        -0.74510         1.38511
N          10.03918        -1.02322         0.77786
C           4.88325        -1.40502        -1.89071
C           5.11649        -0.06755        -2.60866
C           5.44689         1.13127        -1.71987
C           4.28500         1.89154        -1.16893
S           3.45189         1.49746         0.35513
H           0.80149        -1.12751        -0.05011
H           0.88321         0.43421        -0.88097
H           0.81147         0.38416         0.88709
H           5.66320        -1.06301         1.51684
H           8.61832        -1.79615         2.17241
H          10.34999        -0.22845         0.20582
H           3.97220        -1.86244        -2.30949
H           5.66528        -2.12829        -2.15088
H           4.25984         0.15640        -3.25763
H           5.96595        -0.22310        -3.28756
H           5.99118         1.85416        -2.33603
H           6.12982         0.90018        -0.90740
H           4.06211         2.86911        -1.61778
H           2.37430         2.23079         0.16776

