%chk=CC1dCqC2dCNdCCdNCdC2rCqdOrNdC1.chk
%NProcShared=20
# opt freq b3lyp/6-31g(2df,p)

Title Card Required 

0  1
C           1.05561        -0.03656         0.01436
C           2.52975        -0.12630        -0.00351
C           3.35808        -1.17691        -0.02836
C           3.09629        -2.60888        -0.09187
C           2.22103        -3.11396        -0.99854
N           2.21957        -4.41294        -1.45833
C           1.94256        -5.37633        -0.63985
C           1.45366        -5.18817         0.76091
N           2.18585        -4.79434         1.75467
C           3.49677        -4.50655         1.47872
C           3.93930        -3.53348         0.66880
C           4.75279        -0.62898        -0.01081
O           5.77646        -1.29644        -0.04077
N           4.68901         0.73724         0.01687
C           3.43242         1.02104         0.01584
H           0.59864        -1.02984         0.03958
H           0.68613         0.47570        -0.87906
H           0.70303         0.49866         0.90095
H           1.57932        -2.45661        -1.58147
H           2.04337        -6.42715        -0.95467
H           0.38668        -5.41991         0.89730
H           4.23275        -5.10968         2.00527
H           5.01215        -3.39659         0.57332
H           3.04241         2.04836         0.01872

