%chk=CC1dS2CCCdCCdNNdCNdC2[SH]dCS1.chk
%NProcShared=20
# opt freq b3lyp/6-31g(2df,p)

Title Card Required 

0  1
C           1.13570         0.17964         0.04011
C           2.68205         0.44846        -0.06048
S           3.41668         2.22094        -0.12418
C           2.46798         2.10451        -1.64895
C           2.84990         3.40991        -2.09463
C           2.20442         4.02366        -3.16214
C           2.42304         5.34626        -3.21045
C           2.26675         5.88213        -4.55493
N           3.19763         6.76045        -4.78961
N           4.40449         5.79494        -4.83218
C           4.96216         5.59258        -3.57730
N           5.36341         4.08189        -2.60908
C           5.10447         3.06263        -1.54417
S           6.02268         1.02573        -1.11045
C           4.98670        -0.61028        -0.70018
S           3.56972        -0.95153         0.20091
H           0.59241         1.11820         0.02555
H           0.82563        -0.34666         0.96085
H           0.75573        -0.46376        -0.77828
H           1.40477         2.06077        -1.50409
H           2.84071         1.30344        -2.32464
H           3.67157         3.01156        -2.67889
H           3.04898         4.11808        -1.24820
H           1.91088         3.38026        -3.95792
H           3.11612         5.85064        -2.51370
H           2.06763         5.11457        -5.34653
H           5.27096         6.71423        -3.45741
H           6.32691         0.98610         0.18936
H           5.53547        -1.59074        -0.68725

