%chk=CC1NdCOC2d[C]C1dCCC2CN.chk
%NProcShared=20
# opt freq b3lyp/6-31g(2df,p)

Title Card Required 

0  2
C           0.75051        -0.00549         0.07985
C           2.16954        -0.36255        -0.31207
N           2.79936         0.98183        -0.56899
C           2.62020         1.64250        -1.64634
O           2.16970         1.20744        -2.85154
C           2.62616        -0.05578        -3.33502
C           3.01668        -0.88950        -2.44829
C           2.19591        -1.47422        -1.46216
C           1.08687        -2.01915        -2.10043
C           0.58001        -1.47648        -3.51892
C           1.66577        -0.67342        -4.31016
C           1.16499         0.42955        -5.22886
N           0.62882        -0.09503        -6.47189
H           0.71266         0.89757         0.70262
H           0.29751        -0.83635         0.61592
H           0.18616         0.21847        -0.83023
H           2.71709        -0.73806         0.56621
H           2.80473         2.73056        -1.72970
H           1.02698        -3.11986        -2.16515
H          -0.32079        -0.87560        -3.32850
H           0.23028        -2.29004        -4.17932
H           2.25899        -1.39783        -4.88670
H           2.01003         1.08906        -5.47389
H           0.41287         1.04881        -4.72509
H           1.35993        -0.64113        -6.92947
H           0.45331         0.69787        -7.08858

