%chk=CC1qNrCdNNdCNdCC2dCCdC1C2dO.chk
%NProcShared=20
# opt freq b3lyp/6-31g(2df,p)

Title Card Required 

0  1
C           2.73615        -0.62899         1.40805
C           4.41386        -1.33803         2.59522
N           4.15120         0.37317         1.61468
C           3.43975        -1.88614         1.30809
N           4.58220        -1.98579         0.84035
N           5.07352        -3.03180         1.65409
C           6.30097        -2.64712         1.69129
N           6.97803        -3.74908         1.92203
C           8.13224        -3.70082         2.43668
C           8.46062        -4.73727         3.41617
C           7.74087        -5.74797         3.88726
C           6.76442        -4.27114         4.45084
C           6.00397        -2.77218         3.77936
C           7.85821        -3.39997         4.40001
O           9.21984        -3.33322         4.82514
H           2.11242         0.11141         0.23593
H           1.47504        -0.02024         1.48386
H           1.71721        -1.11303         0.41120
H           3.12783         1.00065         0.94474
H           4.33689         0.99558         0.54366
H           2.36434        -2.19683         1.78680
H           6.80366        -1.65248         1.59289
H           8.76843        -2.81880         2.64296
H           6.98056        -6.52361         3.71924
H           7.67835        -5.47363         5.01597

