%chk=CC[SH]dCN1C2dCNdNCdC1CCdC2.chk
%NProcShared=20
# opt freq b3lyp/6-31g(2df,p)

Title Card Required 

0  1
C           0.85682        -0.16104         0.04022
C           2.37731        -0.15254        -0.05893
S           2.67712         1.27792        -1.09974
C           4.34712         1.69454        -0.69786
N           4.78527         3.02110        -0.80952
C           4.13573         4.25956        -1.22194
C           4.85789         5.44563        -1.35852
N           6.15991         5.65475        -1.73825
N           7.03970         4.91555        -1.26997
C           6.69470         3.76987        -0.53579
C           5.55436         3.49562         0.25579
C           4.31683         4.25345         1.45623
C           3.28944         5.12984         0.72816
C           2.96179         4.47040        -0.31907
H           0.48044        -1.10636         0.42086
H           0.41259         0.01909        -0.94890
H           0.50433         0.65678         0.68667
H           2.76720        -1.00829        -0.60540
H           2.82900        -0.10767         0.94173
H           2.05317         2.05683        -0.24310
H           5.09462         0.94420        -0.33371
H           4.66360         6.28312        -0.67165
H           6.89693         2.99635        -1.34712
H           4.40124         4.08809         2.53393
H           3.35938         3.65260         1.68566
H           3.39187         6.24891         0.76147
H           2.87684         3.41379         0.03123

