%chk=CCc1ccc2cqc1rNdCNdCNdC1NdCCdC12.chk
%NProcShared=20
# opt freq b3lyp/6-31g(2df,p)

Title Card Required 

0  1
C           0.88826         0.00438        -0.00368
C           2.37597        -0.00105        -0.03634
C           2.87180         0.29695         1.28125
C           3.36802         1.29658         1.87507
C           4.77297         0.35534         2.74806
C           5.48610        -1.48723         2.87850
C           4.38990        -0.80508         3.44758
C           3.15189        -0.67162         2.26652
N           4.81125        -0.80106         4.78578
C           5.03986        -2.04475         4.79726
N           6.14229        -2.33582         5.48968
C           5.82187        -3.54684         5.49528
N           6.80951        -4.23594         5.95442
C           6.90644        -4.80713         4.85591
N           7.76054        -5.98756         5.63632
C           7.49141        -6.87751         4.80664
C           6.65132        -5.37871         3.63694
C           6.26594        -3.61105         3.40889
H           0.52195        -0.40509        -0.93862
H           0.51922         1.02349         0.12307
H           0.52053        -0.60471         0.82804
H           2.78903         0.62254        -0.82948
H           2.76569        -1.01389        -0.16551
H           2.63294         2.35482         1.28410
H           3.83952         1.48078         3.35897
H           3.29688        -1.67690         2.03725
H           4.48558        -2.77146         3.63394
H           4.83051        -3.95671         4.60179
H           8.13611        -8.20698         5.23626
H           6.64304        -6.82905         3.48551

