%chk=CCC1dCCqNrdCCdCCdC2SCdC12.chk
%NProcShared=20
# opt freq b3lyp/6-31g(2df,p)

Title Card Required 

0  1
C           2.15932         0.58233         0.29205
C           4.33550         1.16110         0.87555
C           6.45717         1.93627         1.62218
C           5.10338         2.04331         0.81614
C           5.03206         3.28950         1.30906
N           3.93829         3.80940         1.90699
C           6.16759         3.86975         0.93494
C           6.15887         4.53304         2.35035
C           7.34701         4.79789         2.26909
C           8.01710         5.79548         2.91072
C           9.05592         5.18285         2.62517
S          10.41912         6.38755         3.31996
C          10.16147         4.24889         2.51343
C           8.55093         3.31421         2.12301
H           1.19448        -0.53868        -0.36784
H           0.96675         1.02012        -0.53661
H           0.93993         0.20568         1.00500
H           3.64350         0.60271        -0.48182
H           3.57337        -0.16501         0.72150
H           5.62847         0.84746         0.21650
H           2.95814         3.61949         1.78783
H           4.18129         4.67391         2.33839
H           7.31006         2.77946         0.49701
H           5.72653         5.38049         2.69315
H           7.27630         3.43039         1.70248
H           7.80958         6.68197         3.39004
H          11.34459         5.34648         2.77532

