%chk=CCCc1c2ccc3ccccccc-3cc1-2.chk
%NProcShared=20
# opt freq b3lyp/6-31g(2df,p)

Title Card Required 

0  1
C           1.11230         0.01804         0.08224
C           2.68093         0.02615         0.09423
C           3.50355         0.86925         1.34249
C           5.50163         1.00548         1.54382
C           5.65635         1.74843         2.64460
C           6.94974         1.43327         2.18033
C           7.82219         2.44584         3.67994
C           9.21533         2.45387         3.69117
C           9.59776         3.14030         4.70260
C          10.85034         3.19677         4.78103
C          11.46978         3.85855         5.76622
C          12.59673         3.40784         5.09773
C          13.54888         3.88137         5.80675
C          12.63857         2.99878         4.52171
C          10.77593         2.15437         3.25963
C           9.21193         1.59341         2.41713
C           7.09322         1.53159         2.32220
H           0.71835        -0.56091        -0.77500
H           0.70939         1.03062        -0.00362
H           0.70939        -0.43980         0.98947
H           2.97350         0.45649        -0.85948
H           2.97350        -1.01928         0.13722
H           2.86371         0.38697         2.18529
H           2.86369         1.83111         1.20997
H           7.45989         0.68146         1.06574
H           6.97470         2.82950         4.24126
H           8.94425         3.54673         5.30758
H          11.93008         2.44804         3.64824
H          11.12624         4.38979         6.55545
H          13.93528         2.77320         4.15673
H          13.41168         4.62798         6.90764
H          14.15209         3.42212         5.12506
H           9.25120         0.89648         1.38355

