%chk=CCCqCrOC1dCC2dCq[O]rCqdC2rCdC1.chk
%NProcShared=20
# opt freq b3lyp/6-31g(2df,p)

Title Card Required 

0  2
C           0.96622         0.01021        -0.03612
C           2.49577        -0.12025        -0.01608
C           2.99021        -1.45633         0.61880
C           2.35285        -2.61066        -0.14742
O           4.43785        -1.53932         0.55343
C           5.06762        -2.46613         1.39007
C           4.75678        -3.77729         1.54208
C           5.46678        -4.78631         2.52053
C           6.48299        -4.69672         3.45159
O           6.87167        -5.32055         4.56191
C           7.31726        -4.28529         2.32543
C           6.59572        -5.29260         1.72001
C           7.28801        -2.74791         2.42792
C           6.25846        -1.95102         2.03709
H           0.65065         0.96189        -0.47405
H           0.55583        -0.05889         0.97644
H           0.49210        -0.76467        -0.64630
H           2.91339         0.73697         0.52735
H           2.87337        -0.02891        -1.04298
H           2.68224        -1.45117         1.67210
H           2.77875        -2.67618        -1.15345
H           1.26863        -2.53877        -0.21350
H           2.50555        -3.55923         0.35243
H           4.15377        -4.28431         0.80787
H           6.76389        -6.38505         1.72329
H           8.05725        -2.36294         3.07760
H           6.26885        -0.90543         2.30911

