%chk=CCdCCdCCCCCdC1Cd[SH]1.chk
%NProcShared=20
# opt freq b3lyp/6-31g(2df,p)

Title Card Required 

0  1
C           0.97728        -0.04357        -0.08305
C           2.47034        -0.04603        -0.09630
C           3.18068        -0.26828        -1.21090
C           4.62207        -0.27308        -1.23339
C           5.32443        -0.49698        -2.35258
C           6.82348        -0.50478        -2.37303
C           7.34871        -0.79344        -3.77613
C           8.87176        -0.81647        -3.78239
C           9.39681        -1.04076        -5.16483
C          10.68039        -1.03583        -5.43070
C          11.63394        -1.00729        -6.49661
S          12.12065        -1.06803        -4.61358
H           0.61227         0.15833         0.92877
H           0.58342        -1.01622        -0.39366
H           0.58331         0.73531        -0.74320
H           2.97214         0.14254         0.84961
H           2.66139        -0.45572        -2.14888
H           5.14711        -0.08714        -0.29876
H           4.80589        -0.68364        -3.29080
H           7.19852        -1.26990        -1.68284
H           7.20110         0.46893        -2.03674
H           6.98355        -0.02628        -4.47327
H           6.96573        -1.75848        -4.13185
H           9.24223        -1.58802        -3.09905
H           9.23842         0.15673        -3.42796
H           8.68970        -1.09919        -5.98944
H          11.33365        -1.66136        -7.32792
H          12.06671         0.17583        -4.18858

