%chk=CCdC1CdCC2dCCdCCdCCdC2CCCOOCCC1.chk
%NProcShared=20
# opt freq b3lyp/6-31g(2df,p)

Title Card Required 

0  1
C           1.05783        -0.05480        -0.07169
C           2.55388        -0.06577        -0.03449
C           3.29127        -0.47433         1.01765
C           4.74938        -0.58218         0.93898
C           5.65854         0.33040         0.52253
C           7.11578         0.13903         0.76731
C           7.60303        -1.13588         0.76402
C           8.77597        -1.43987         1.54395
C           9.90728        -1.88576         0.93631
C          10.87689        -0.79697         0.97322
C          10.51553         0.30142         0.25792
C           9.38003         1.30817         0.66060
C           8.06346         1.24404         1.15048
C           7.69657         1.66904         2.69620
C           6.24295         2.08813         3.20028
C           5.85356         1.67463         4.66011
O           4.46782         2.03187         4.89941
O           3.77479         0.85398         5.46019
C           2.80050         0.45145         4.47786
C           3.47225        -0.54621         3.55502
C           2.65833        -0.95697         2.32500
H           0.70847         0.30616        -1.04378
H           0.64764         0.60831         0.69572
H           0.65580        -1.06472         0.06790
H           3.05425         0.23832        -0.94957
H           5.11869        -1.48565         1.42809
H           5.31055         1.31173         0.19461
H           7.05361        -1.94589         0.31334
H           9.00458        -0.68798         2.30045
H           9.86754        -2.54911         0.08518
H          11.91279        -1.07745         1.18447
H          10.66235         0.12654        -0.82363
H           9.53600         2.14705        -0.03915
H           8.39144         2.45146         3.02893
H           7.94171         0.78648         3.30052
H           5.45573         1.69092         2.56518
H           6.11862         3.17625         3.12922
H           6.45193         2.21925         5.39907
H           5.99665         0.60207         4.83275
H           2.42404         1.32790         3.93865
H           1.95276        -0.02192         4.98801
H           3.76693        -1.43733         4.12135
H           4.41401        -0.09358         3.25982
H           1.62333        -0.60825         2.43008
H           2.59619        -2.05449         2.29268

