%chk=CCN1CC2dCCdCNOC2dCCdCCdN1.chk
%NProcShared=20
# opt freq b3lyp/6-31g(2df,p)

Title Card Required 

0  1
C           1.62529         0.43902        -0.10938
C           3.36414         0.69356        -0.43116
N           4.63498         1.87325        -0.14460
C           5.12688         1.41401         1.11545
C           4.96922         2.62110         1.98089
C           3.75439         2.87987         2.54470
C           3.62613         3.79396         3.62513
C           4.31522         4.96965         3.74549
N           5.17421         5.54164         2.87245
O           5.70356         4.91306         1.74613
C           6.02173         3.60640         2.07371
C           7.31120         3.13950         2.04862
C           8.43063         3.80591         1.45929
C           8.61976         2.98501         0.40832
C           7.28616         2.94054        -0.64456
N           5.97668         2.56543        -0.94955
H           1.30795        -0.53995        -0.56606
H           0.93652         1.14975        -0.58650
H           1.26666         0.26205         0.93418
H           3.46535         0.34417        -1.44957
H           3.65678        -0.15799         0.21890
H           6.03920         0.98315         0.69291
H           4.74359         0.51567         1.61399
H           2.89198         2.26463         2.31110
H           3.02860         3.44642         4.44777
H           4.27273         5.48150         4.68853
H           5.40546         6.53072         2.98438
H           7.38814         2.05627         1.98679
H           8.20417         4.85491         1.22028
H           9.49269         2.30564         0.47758
H           7.69592         3.71970        -1.36101

