%chk=CCNC1dCCdCSCdCCdC2SCdCSC2CdCdCN1.chk
%NProcShared=20
# opt freq b3lyp/6-31g(2df,p)

Title Card Required 

0  1
C           1.23657         0.20245        -0.09674
C           3.05840         0.50109        -0.09472
N           3.81543         2.25109        -0.51969
C           5.24993         3.55722        -0.72777
C           5.25218         2.90816        -1.92021
C           6.60459         2.72058        -2.31442
C           7.17231         3.78723        -2.89764
S           8.85476         4.10957        -2.48377
C           9.06098         5.55153        -3.38735
C          10.26880         6.06263        -3.51408
C          10.48775         7.19430        -4.33086
C          11.68150         7.75780        -4.32337
S          12.94770         6.98150        -3.55759
C          14.29333         7.78726        -4.06213
C          14.38389         8.97671        -4.64208
S          13.03439        10.10813        -4.85633
C          11.27165         9.11227        -4.45399
C           9.86081         9.00713        -3.01884
C           8.77799         7.80524        -2.23270
C           7.50065         6.67415        -1.70153
N           6.45133         5.08580        -0.98222
H           0.85918        -0.78261         0.37656
H           0.77588         0.12978        -1.09878
H           0.72857         0.95600         0.49861
H           3.19231        -0.52323        -0.67983
H           3.14111         0.16950         0.97296
H           2.95556         2.37032        -1.09028
H           4.29720         3.38811        -2.21313
H           7.19036         2.12867        -1.56287
H           6.42493         4.61913        -3.00965
H           8.24461         6.19753        -3.74257
H          11.08881         5.64425        -2.95853
H           9.63255         7.85200        -4.63991
H          15.11891         7.16737        -3.76233
H          15.41135         9.29254        -4.85594
H          11.14904         9.16578        -5.62034
H          10.52812        10.17085        -3.03252
H           6.97135         7.58279        -2.13412
H           7.09456         4.23609        -0.68614

