%chk=CCOC1dCCdCCdCCdC2CCqCdOrdCCdC21.chk
%NProcShared=20
# opt freq b3lyp/6-31g(2df,p)

Title Card Required 

0  1
C           1.48093         0.32898        -0.40292
C           3.45269         1.01886        -0.94107
O           4.89185         2.49449        -1.75159
C           6.07944         3.76201        -3.02117
C           5.43903         2.37395        -3.11357
C           6.68943         1.82797        -2.86775
C           7.23068         2.33300        -3.96509
C           8.51606         2.72570        -3.61001
C           8.89431         3.01669        -4.82882
C          10.07115         3.68992        -4.62943
C           9.62023         4.76710        -5.15248
C          11.59508         4.92281        -5.65779
C          12.08763         5.94728        -6.59485
C          13.93229         6.03467        -6.85911
O          14.75268         5.32955        -6.23920
C          10.61795         6.29812        -6.68034
C           8.84251         5.69392        -5.65856
C           7.76430         4.77981        -4.33998
H           0.87913        -0.59037         0.57173
H           0.74494        -0.30287        -1.11277
H           0.71312         1.03980         0.05299
H           3.26654        -0.50186        -0.64215
H           3.21804         0.65327         0.50110
H           4.17311         2.46415        -3.25086
H           7.05770         1.50042        -1.88562
H           6.37740         3.20893        -4.68921
H           9.14201         2.42321        -2.82318
H           7.82308         3.41589        -5.57480
H          11.02472         3.47584        -4.23380
H          12.23416         4.04893        -6.19763
H          12.26726         5.29662        -4.86752
H          14.40471         6.82387        -7.52906
H          11.43510         7.15357        -7.66049
H           9.14485         6.49773        -6.88073

