%chk=CCqSrSCqCdOrCdCSqCrdS.chk
%NProcShared=20
# opt freq b3lyp/6-31g(2df,p)

Title Card Required 

0  1
C           0.97345         0.03501         0.10827
C           2.50401         0.13166         0.06256
S           2.82205         1.36645        -1.22711
S           3.07259         0.63402         1.74147
C           4.90668         0.39483         1.71997
C           5.55573         1.43869         0.82427
O           5.67431         1.32606        -0.39548
C           5.43327         0.60728         3.14445
C           6.74078         0.62251         3.47565
S           7.23198         1.17467         5.11663
C           6.73784        -0.25308         6.11534
S           9.19368         0.93268         5.01694
H           0.55752        -0.20210        -0.88034
H           0.51517         0.97911         0.43421
H           0.63456        -0.75330         0.78791
H           2.92025        -0.84070        -0.22356
H           2.58039         2.44608        -0.47476
H           5.16759        -0.61279         1.38031
H           5.91992         2.35447         1.31923
H           4.69683         0.81621         3.91978
H           7.48815         0.45309         2.70161
H           5.64688        -0.30073         6.15256
H           7.10030        -0.10316         7.13904
H           7.13431        -1.19565         5.72851

