%chk=CdC1CdCNdCNdNCqCCqCrdOrdN1.chk
%NProcShared=20
# opt freq b3lyp/6-31g(2df,p)

Title Card Required 

0  1
C           2.19497         0.08077        -0.26331
C           3.98046         0.11007        -0.78227
C           2.95982         0.15968        -1.66106
C           4.25824         0.15952        -1.65816
N           4.75613         0.24037        -3.09031
C           6.10423         0.23974        -3.07907
N           6.72339         0.30691        -4.26890
N           7.82655         0.29030        -3.97466
C           7.74441         0.21505        -2.64187
C           9.50548         0.29549        -4.06672
C          10.57481         0.40005        -5.91884
C          10.14124         0.49455        -7.59272
O          11.93737         0.42319        -6.32858
N           5.97068         0.15239        -1.53198
H           0.83978         0.11586        -0.88485
H           0.98698         0.02888         0.65592
H           2.40312         0.20747        -2.50747
H           5.25297         0.08110        -0.26908
H           7.18778         0.15131        -1.51268
H          10.57259        -0.54699        -4.33410
H          10.57259         1.16271        -4.23758
H           9.12542         0.48342        -7.39554
H          10.40261        -0.34223        -8.32365
H          10.40261         1.40829        -8.22483

