%chk=CdC1CdCCdCCdCqCdNrCC1dCdNNS.chk
%NProcShared=20
# opt freq b3lyp/6-31g(2df,p)

Title Card Required 

0  1
C           1.73195         0.20287         0.01295
C           3.36711         0.51653        -0.17798
C           3.26474         1.21394         1.03554
C           4.43915         1.14435         1.59728
C           4.94870         2.35380         1.93661
C           6.06122         1.75326         2.38238
C           6.81156         2.84942         2.81234
C           8.16707         2.65043         2.12625
C           9.58324         1.92782         1.55790
N           9.29984         0.99359         0.74153
C           6.99319         2.19936         0.57670
C           5.25429         0.81402        -0.29616
C           4.39068        -0.61279        -0.75798
N           3.30205        -1.66461        -1.36146
N           2.06656        -3.15697        -1.51496
S           0.95172        -4.58518        -2.66477
H           0.76002         0.74164         0.52326
H           0.82741        -0.57350        -0.57381
H           2.50502         1.84903         1.39897
H           5.48870         0.35169         1.32579
H           4.55929         3.12725         2.53381
H           6.88043         0.83880         1.61307
H           6.75148         3.82569         3.17099
H          10.65462         2.13975         1.71972
H           8.30134         0.96914         0.69960
H           7.72798         3.38873         1.17044
H           7.88566         2.22101         1.84082
H           1.80596        -3.95128        -0.80568
H           0.45308        -4.55419        -4.00803

