%chk=CdC1CdCCdCqCqCrdNrCdCCdCS1.chk
%NProcShared=20
# opt freq b3lyp/6-31g(2df,p)

Title Card Required 

0  1
C           2.14466         0.04224         0.02910
C           3.80201        -0.12913        -0.03135
C           3.05153        -1.23195        -0.92161
C           3.84331        -2.01196        -1.52744
C           5.01695        -2.53251        -1.98268
C           6.43206        -2.03635        -1.99561
C           7.78015        -0.75350        -1.01190
C           9.27488        -0.65736        -0.54311
N           7.68872         0.26283         0.10819
C           6.81524        -3.27018        -2.65307
C           7.89902        -2.41907        -2.60236
C           8.62817        -3.57725        -2.32890
C           7.85249        -2.60079        -0.97943
S           6.09010        -1.14519        -0.31150
H           1.08635        -0.55924        -0.42808
H           1.19076         0.71234         0.52355
H           2.14433        -1.69956        -1.31679
H           4.37203        -1.34061        -1.03682
H           4.49384        -3.29928        -2.50652
H          10.02263        -1.20864        -0.94901
H           9.40762        -0.98938         0.51354
H           9.43887         0.25879        -1.10918
H           6.66776         0.32277         0.23700
H           6.56995        -4.19830        -3.17473
H           9.23996        -1.96339        -1.89097
H           8.78205        -4.37691        -3.31027
H           9.18368        -3.18667        -2.10901

