%chk=CdC1NdCCdCSCC1qCdSrCNdS.chk
%NProcShared=20
# opt freq b3lyp/6-31g(2df,p)

Title Card Required 

0  1
C           0.80740        -0.25173        -0.06179
C           2.15111        -0.14620        -0.01385
N           2.69711        -1.33420         0.41689
C           3.69226        -1.54821         1.20618
C           4.74731        -0.76554         1.87083
C           4.61688         0.40852         2.48936
S           3.20217         1.38142         2.44156
C           3.52885         1.98474         0.72740
C           2.91146         1.16437        -0.45015
C           1.95154         2.16220        -1.21329
S           0.73140         3.13544        -0.51879
C           4.05280         0.83780        -1.50341
N           4.68970         2.09675        -1.96763
S           5.81800         1.87437        -2.93956
H           0.32863        -1.15917         0.28481
H           0.14687         0.52189        -0.40276
H           3.76923        -2.61410         1.49364
H           5.71352        -1.26157         1.87645
H           5.49178         0.86564         2.93539
H           4.61672         2.07128         0.61912
H           3.19092         3.02316         0.73214
H           2.09918         2.22801        -2.30636
H           3.59969         0.27548        -2.33749
H           4.77653         0.16027        -1.02594

