%chk=Cdc1c2cccsc-2c2c1dCCdC2.chk
%NProcShared=20
# opt freq b3lyp/6-31g(2df,p)

Title Card Required 

0  1
C           1.62305        -0.40465        -0.01622
C           2.95632        -0.34626         0.15657
C           3.49129         1.07812         0.03086
C           3.00371         2.35609        -0.04538
C           3.95586         3.48860        -0.06485
C           5.28903         3.36491        -0.07080
S           6.15912         1.93395        -0.11836
C           4.89273         0.80223        -0.09102
C           4.97621        -0.47728        -0.42241
C           4.38553        -1.40136         0.52634
C           5.92048        -1.81138         0.79725
C           6.87537        -1.18089        -0.22495
C           5.74770        -1.53927        -1.02420
H           1.04128         0.55285        -0.09569
H           0.84322        -1.18385        -0.02841
H           1.95564         2.68031        -0.05307
H           3.59613         4.51093        -0.05653
H           5.99088         4.17704        -0.07047
H           6.99955        -2.54474         0.35561
H           7.30198        -0.19797        -0.05549
H           5.14953        -2.73184        -0.74521

