%chk=CdC1C2dC3CdCCdCqNrCdNC12S3.chk
%NProcShared=20
# opt freq b3lyp/6-31g(2df,p)

Title Card Required 

0  1
C           1.47140         0.45622        -0.36605
C           2.78638         0.51870        -0.60119
C           3.42208         1.28843         0.51405
C           4.51354         1.05141         1.25506
C           5.42248         2.11635         1.75707
C           5.11550         3.37991         1.50101
C           6.16424         4.29704         1.03288
C           5.86988         4.60922        -0.22865
N           4.99359         5.64439        -0.61586
C           5.89616         3.21826        -1.06668
N           5.31342         2.02331        -1.21052
C           4.21902         0.94957        -0.72043
S           5.06042        -0.30860         0.30312
H           0.82487         1.17854         0.13934
H           0.94713        -0.52580        -0.40191
H           6.45412         1.75566         1.72265
H           4.16205         3.55909         0.96145
H           7.13454         3.78743         1.19145
H           4.06193         5.44016        -0.26098
H           5.22046         6.54731        -0.17271
H           6.93699         3.26013        -1.51617

