%chk=CdC1CdCCdNCdCCdCCdCSCqCrdCS1.chk
%NProcShared=20
# opt freq b3lyp/6-31g(2df,p)

Title Card Required 

0  1
C           3.86113        -0.76328         0.59273
C           5.95930        -1.20877         1.01448
C           3.90995        -1.33277         1.13186
C           5.39879        -1.08376         0.89613
C           5.34003        -2.41640         2.15774
N           6.58732        -2.41793         2.15918
C           7.19543        -3.20643         2.90566
C           8.50386        -3.43377         3.12088
C           9.07053        -4.20955         3.85531
C          10.18971        -3.93933         3.59950
C          11.22357        -4.98227         4.58684
C          12.80783        -4.86076         4.47180
S          13.67461        -5.90420         5.45964
C          12.74366        -4.27011         3.91265
C          15.02250        -4.64466         4.26723
C          11.24450        -3.12972         2.83303
S           8.72630        -2.00059         1.76409
H           2.09116        -0.74624         0.57659
H           2.33471        -0.12493        -0.01160
H           2.70443        -1.80357         1.57757
H           5.20797        -0.10772        -0.02789
H           4.51727        -2.81007         2.53043
H           6.61013        -3.75521         3.42519
H           9.51591        -2.89929         2.61488
H           8.72497        -4.80639         4.42034
H          10.45828        -2.54927         2.28355
H          10.88386        -5.64595         5.21516
H          13.77221        -3.73484         3.40590
H          15.27625        -3.96754         3.62620
H          16.44995        -5.15875         3.61050
H          16.44995        -4.01705         4.81648
H          12.43136        -3.81916         3.48574

