%chk=CdC1[C]CdCCSCqNSOrCdC1.chk
%NProcShared=20
# opt freq b3lyp/6-31g(2df,p)

Title Card Required 

0  1
C           1.83749         0.04587         0.06159
C           3.66375        -0.12145        -0.10056
C           3.34423        -0.25707         1.32594
C           4.64533        -0.16612         1.54589
C           4.96900        -0.53793         2.68334
C           6.31143        -0.54010         2.31521
S           7.25711        -0.79808         3.69650
C           8.96078        -0.53667         2.25131
N           9.85120         0.79870         2.37110
S           9.34635         1.18880         0.85225
O           9.52775         2.69645         0.46363
C           7.53940        -0.33930         0.76871
C           5.71256        -0.32159        -0.13488
H           0.64399        -0.14583         0.84559
H           0.66941         0.23880        -0.80886
H           5.90973         0.34269         1.15470
H           4.86858        -0.84826         3.60667
H           6.74444         0.95268         1.83837
H           6.54361        -1.55273         1.14414
H           9.81248        -1.41580         2.16527
H          10.90598         0.71087         2.29619
H           9.00210         2.81926        -0.37052
H           8.27097        -0.56201         2.14808
H           4.70484         0.23225        -0.86201

