%chk=CdC1CdC2CdCCdCCdCCdCCdCC2dC1.chk
%NProcShared=20
# opt freq b3lyp/6-31g(2df,p)

Title Card Required 

0  1
C           1.05717        -0.10806        -0.03747
C           2.45194        -0.00984        -0.10737
C           3.00235         1.19898        -0.02877
C           4.29998         0.99185        -0.09897
C           5.37923         1.93500         0.09232
C           5.21558         3.21003         0.00242
C           6.15369         4.22201         0.21965
C           6.02895         5.42985        -0.04643
C           7.10620         6.00241         0.56675
C           7.02893         7.26962         0.06232
C           8.34200         7.21024         0.70350
C           8.13284         7.32884        -0.61490
C           7.93526         5.14481        -0.93801
C           7.19102         3.07398        -0.80273
C           5.81321         1.27398        -0.55995
C           4.38805        -0.14807        -0.23449
H           0.44128         0.82968        -0.05575
H           0.43996        -0.99468        -0.06332
H           2.67031         2.11790        -0.05963
H           6.62329         1.87742         0.56750
H           4.27495         3.42046        -0.07965
H           7.68828         4.11675         0.28631
H           5.14430         5.75587        -0.08330
H           8.49848         5.21304         0.60533
H           6.28861         8.03108        -0.06226
H           9.70416         7.47109         0.23570
H           7.85198         9.04595        -0.20823
H           8.85953         6.51307        -0.80724
H           7.63755         1.65922        -0.37899
H           3.37889        -1.49630        -0.07281

