%chk=CdC1CdCCdCC2dCCdC2CdCCdCS1.chk
%NProcShared=20
# opt freq b3lyp/6-31g(2df,p)

Title Card Required 

0  1
C           0.90964        -0.42387        -0.66841
C           1.97027        -0.72491        -1.53481
C           3.28018        -0.95957        -0.99148
C           4.58318        -0.74230        -0.65084
C           5.52410        -1.37292        -1.55676
C           6.83126        -1.51645        -1.78266
C           7.45372        -2.35864        -2.97276
C           8.86165        -2.43924        -3.05332
C           9.47923        -3.18318        -4.17307
C           6.59883        -3.18318        -4.17307
C           5.07883        -3.18318        -4.17307
C           4.16746        -3.64323        -5.00023
C           2.69263        -3.66309        -4.61539
C           1.97851        -2.86565        -4.09237
S           2.16994        -1.30188        -3.24674
H          -0.11702        -0.74546        -0.80582
H           0.97285         0.15459         0.29250
H           2.86604        -1.47713        -0.28094
H           4.87075        -0.00082         0.03896
H           4.99432        -1.69536        -2.41065
H           7.56667        -1.04598        -1.13016
H           9.49727        -1.89821        -2.33310
H          10.33299        -3.35495        -4.79844
H           4.62258        -3.07351        -3.20889
H           4.53673        -4.19209        -5.86347
H           1.61325        -3.70991        -3.89810
H           1.48364        -3.51272        -5.22560

