%chk=CdC1CdCCdCCdCC2dCCdCCdCCdC12.chk
%NProcShared=20
# opt freq b3lyp/6-31g(2df,p)

Title Card Required 

0  1
C           3.77278         1.31708        -1.33005
C           5.25507         2.32823        -1.48278
C           4.00874         1.95706        -0.17468
C           4.85340         1.46643         0.70593
C           5.32337         2.85469         0.74311
C           6.62341         2.63252         0.67096
C           7.22664         3.86636         0.73643
C           8.53340         3.62057         0.49520
C           8.40988         4.56244        -0.47958
C           8.76617         5.77416         0.46992
C           9.81626         6.98403         0.94391
C          10.17965         7.98638         0.12636
C           9.70589         7.68663        -1.24257
C           9.40894         6.40452        -1.96831
C           8.48332         4.63940        -1.96726
C           7.13234         3.56566        -1.49428
H           2.84571         0.33860        -0.54397
H           2.38662         1.13884        -0.60981
H           2.84272         2.52060        -0.02497
H           5.19959         0.43168         0.14843
H           4.72654         3.66895        -0.02504
H           7.08721         1.73272         0.06498
H           6.64890         4.79141         0.03430
H           9.16627         2.83430         0.04586
H           7.90941         6.12604         0.99535
H          10.12817         7.15185         2.00425
H          10.81787         8.86846         0.47675
H           9.21920         8.67545        -1.60495
H           9.82335         6.84039        -2.95745
H           9.93972         4.83226        -1.58137

