%chk=CdC1CdCNdCCdCNSC2dCCdCSN2CCdN1.chk
%NProcShared=20
# opt freq b3lyp/6-31g(2df,p)

Title Card Required 

0  1
C           2.65694        -1.20552        -0.48071
C           3.78533        -2.66717        -0.70764
C           3.53387        -1.85190         0.64974
C           4.73162        -1.36003         0.95215
N           5.59267        -2.37234         1.14919
C           6.73085        -2.34914         0.54566
C           7.55702        -3.55378         0.63005
C           8.84185        -3.70980         0.35020
N           9.64087        -4.79071         0.43480
S          11.29351        -4.84482         0.43735
C          11.52139        -6.58387         0.48032
C          12.88747        -7.00132         0.73177
C          13.47664        -8.35381         0.83510
C          12.62425        -9.37273         0.68338
S          10.76769        -9.17921         0.34332
N          10.13027        -7.25673         0.24155
C           8.29126        -6.52610        -0.25058
C           6.52539        -5.30965        -0.51262
N           5.30538        -3.87341        -0.60230
H           1.29301        -1.16499        -0.03210
H           1.71993        -0.07570        -0.41066
H           2.64510        -2.56180         0.68864
H           5.04166        -0.50240         0.30615
H           7.16259        -1.48376         0.07034
H           6.93075        -4.33966         1.03069
H           9.37133        -2.82243         0.18949
H           9.17285        -5.53652         0.89738
H          13.73750        -6.27900         0.88526
H          14.56583        -8.57513         1.02535
H          13.02877       -10.40331         0.75408
H           8.93753        -6.79692        -1.12912
H           8.48422        -6.97319         0.92590
H           6.35212        -6.55679        -0.27655

