%chk=Cdc1sc2cqcccccscc1SC1dNS1rCd2.chk
%NProcShared=20
# opt freq b3lyp/6-31g(2df,p)

Title Card Required 

0  1
C           2.60563        -0.30240         0.36117
C           4.57400        -0.59644         0.77398
S           3.15923        -1.15952         1.56450
C           4.88351        -1.01566         1.36254
C           5.61412        -1.57898         2.15339
C           6.87943        -1.93448         2.65249
C           7.44472        -2.57322         3.54924
C           8.87299        -2.56488         3.53753
C           9.09544        -3.26390         4.51890
C          10.20118        -3.06375         4.23791
S          11.04085        -2.49389         3.43786
C           8.69941        -1.73379         2.37074
C           6.85341        -0.96425         1.29036
S           4.96824         0.27563        -0.45034
C           3.79537         1.58447        -2.28785
N           3.35535         2.58515        -3.69274
S           4.98865         2.26920        -3.24916
C           6.17227        -0.33770         0.41073
H           0.96690        -0.55050         0.70948
H           1.15040         0.23133        -0.38814
H           8.07544        -1.16124         1.56692
H           7.11529        -3.05830         4.23026
H           9.80909        -1.54431         2.10472
H           9.34784        -3.78390         5.24895
H          11.61281        -2.48189         3.42101
H          10.39862        -2.08841         2.86860
H           6.58263         0.33171        -0.52907

