%chk=CdC1CdCNdC2CdCCdCC1dC2CSC.chk
%NProcShared=20
# opt freq b3lyp/6-31g(2df,p)

Title Card Required 

0  1
C           3.23506         0.13811         0.33112
C           4.77821         0.34122         1.24655
C           3.44813         0.40675         1.78861
C           4.77427         0.34472         1.65759
N           5.15569         0.63657         3.02353
C           6.37209         0.56097         2.53214
C           6.89710         0.83409         3.95220
C           8.21971         0.71521         3.37927
C           9.08342         0.94634         4.50343
C           8.60479         0.69847         3.16549
C           6.87966         0.44955         1.95145
C           7.37035         0.22467         0.83188
C           6.86719        -0.03448        -0.46595
S           8.07635        -0.28051        -1.71336
C           6.95815        -0.55580        -3.10943
H           2.22287        -0.03382        -0.46714
H           1.88403         0.22000         0.79241
H           2.68787         0.54712         2.48085
H           5.08673         0.02599        -0.02045
H           6.58510         1.02703         4.92257
H           9.06858         0.42684         1.90974
H           8.89138         1.15323         5.56875
H          10.03255         0.71932         3.34951
H           6.34085         0.91869        -0.69602
H           6.34434        -1.00617        -0.31715
H           7.63076        -0.72102        -3.94781
H           6.32741         0.31059        -3.33732
H           6.32741        -1.44389        -2.99157

