%chk=CdC1CdNC2dCCdCCdCCdCC12SC.chk
%NProcShared=20
# opt freq b3lyp/6-31g(2df,p)

Title Card Required 

0  1
C           1.41119        -0.41483        -0.28539
C           2.75288        -0.73443        -0.39835
C           3.48819         0.55348        -0.15280
N           4.68225         0.39952         0.33101
C           4.83307        -0.93309         0.65862
C           5.84456        -1.27269         1.50207
C           5.59150        -2.47245         2.15703
C           6.45941        -3.31072         2.76634
C           5.98384        -4.69913         2.73478
C           6.67452        -5.12961         1.68716
C           5.88156        -4.63860         0.33614
C           4.92793        -3.58719        -0.26946
C           3.89398        -2.02200         0.09412
S           2.46888        -3.04496         0.83335
C           2.29275        -2.34433         2.46116
H           0.99348         0.61672        -0.19950
H           0.59692        -1.11435        -0.11318
H           3.01818         1.56806        -0.27975
H           6.63225        -0.59767         1.74518
H           4.66299        -2.97723         1.97318
H           7.49578        -3.04649         2.60056
H           4.92758        -4.92675         2.48834
H           7.76867        -5.18282         1.96916
H           5.89276        -5.72943         0.04820
H           4.89834        -3.63478        -1.35507
H           1.91030        -3.17823         3.04651
H           1.57788        -1.52370         2.48285
H           3.22443        -2.01572         2.91043

