%chk=Cdc1cqdNrc1dCqCdCCdOrCqCrdCCCCdCCC.chk
%NProcShared=20
# opt freq b3lyp/6-31g(2df,p)

Title Card Required 

0  1
C           1.13727        -0.13897         0.06248
C           2.45398        -0.08053         0.06248
C           3.68658        -0.78965         0.06248
N           4.33779        -1.84687         0.06248
C           3.65694         0.65780         0.06248
C           4.34149         1.81212         0.06248
C           5.83610         1.74852         0.06248
C           6.60066         0.64581         0.06248
C           8.07793         0.66895         0.06248
O           8.72531        -0.37174         0.06248
C           3.63310         3.13876         0.06248
C           2.12827         3.21249         0.06248
C           4.27113         4.33324         0.06248
C           3.56012         5.66671         0.06248
C           4.53117         6.84557         0.06248
C           3.79415         8.15187         0.06248
C           4.43143         9.33043         0.06248
C           3.70369        10.64009         0.06248
C           4.67880        11.80494         0.06248
H           0.60260        -1.08007         0.06248
H           0.50373         0.74012         0.06248
H           3.74171        -2.67840         0.06248
H           6.36260         2.69924         0.06248
H           6.20032        -0.35399         0.06248
H           8.56523         1.65632         0.06248
H           1.65931         2.25339         0.06248
H           1.75323         3.71778        -0.83358
H           1.75323         3.71778         0.95853
H           5.35124         4.40721         0.06248
H           2.91961         5.73773         0.95103
H           2.91961         5.73773        -0.82607
H           5.17292         6.78925        -0.82542
H           5.17293         6.78925         0.95037
H           2.70570         8.13502         0.06248
H           5.51972         9.34543         0.06248
H           3.06376        10.70699         0.94996
H           3.06376        10.70699        -0.82500
H           5.32085        11.77685         0.94953
H           4.13647        12.75465         0.06248
H           5.32084        11.77685        -0.82458

