%chk=CdCC1CdCCdCqCqCrNdOrNdNCdC1.chk
%NProcShared=20
# opt freq b3lyp/6-31g(2df,p)

Title Card Required 

0  1
C           1.52086         0.50085        -0.10732
C           2.87750         0.76582         0.03355
C           4.22182         1.33167        -0.97907
C           4.92893         0.05440        -0.85342
C           5.59594        -0.09908        -2.05925
C           6.97016        -0.01636        -1.96831
C           7.63054         0.76670        -2.88724
C           7.15640         1.96940        -3.91208
C           7.81725         1.54509        -5.16841
N           5.69387         2.28000        -3.99983
O           5.37794         3.09875        -4.86688
N           8.82445         1.12400        -2.43847
N           8.60943         2.18438        -1.82491
C           7.29432         2.65855        -1.25725
C           5.79401         2.43569        -0.93001
H           0.98382        -0.17640         0.60877
H           0.78349         0.76653        -0.86926
H           3.20249         0.03359         0.79042
H           3.68445         1.37995        -1.95412
H           5.27022        -0.17355         0.13131
H           5.16846         0.47920        -2.85476
H           7.40282         0.03136        -0.93002
H           7.60296         2.97945        -3.69687
H           7.54288         0.50127        -5.29114
H           8.90888         1.61890        -5.03919
H           7.51556         2.16152        -6.00736
H           7.97306         3.31673        -0.68823
H           5.26073         3.34910        -1.24930

