%chk=CdCC1dCCdCCdCC2qCdOrSCdC12.chk
%NProcShared=20
# opt freq b3lyp/6-31g(2df,p)

Title Card Required 

0  1
C           2.17395         0.99153         0.13425
C           3.71492         1.54467        -0.03373
C           5.38812         2.55726         0.13774
C           5.27458         1.40661         0.83399
C           5.28538         1.82701         2.13568
C           6.58229         1.61972         2.28661
C           7.16757         2.63501         3.00593
C           8.42082         2.66737         2.56246
C           8.53798         3.99949         2.36328
C           8.90128         4.01266         4.30656
O           9.53934         4.64062         5.16178
S           8.27309         5.68898         2.30697
C           8.39821         4.71426         0.61827
C           7.03778         3.78970         0.96410
H           1.56390        -0.12121        -0.27563
H           1.07313         1.11762         0.54174
H           3.73087         0.30911        -0.33977
H           5.28373         0.34912         0.41732
H           4.68870         2.77644         2.30672
H           7.17060         1.27247         1.33079
H           6.61101         3.68628         3.07193
H           9.07364         2.15125         1.87092
H           8.47171         3.09658         4.76591
H           9.64627         5.18413         0.93671

