%chk=CdCCCqCrOCCC1dCNdCCdCCdC1.chk
%NProcShared=20
# opt freq b3lyp/6-31g(2df,p)

Title Card Required 

0  1
C           1.00985         0.02470        -0.04843
C           2.35035        -0.01399        -0.03121
C           3.17474         0.16221         1.21520
C           4.68376         0.18038         0.91386
C           5.02925         1.33849        -0.03346
O           5.39922         0.30502         2.15722
C           6.80758         0.22212         1.94512
C           7.58607         0.36808         3.23733
C           9.06924         0.32404         2.95005
C           9.87053        -0.61418         3.49031
N          11.22921        -0.69869         3.30524
C          11.94961         0.25129         3.81626
C          11.50156         1.42830         4.61313
C          10.78735         2.40216         4.02957
C          10.40182         2.37225         2.63485
C           9.61668         1.40696         2.13135
H           0.47401        -0.08248        -0.98456
H           0.44046         0.16070         0.86204
H           2.86467        -0.16179        -0.97705
H           2.95506        -0.64791         1.92213
H           2.89979         1.09678         1.72246
H           4.95960        -0.77976         0.45751
H           4.82574         2.29717         0.45455
H           4.47726         1.29039        -0.97305
H           6.08363         1.33629        -0.31982
H           7.11110         1.04972         1.30398
H           7.05245        -0.72549         1.45208
H           7.28219        -0.41558         3.94147
H           7.32277         1.31661         3.72551
H           9.44460        -1.39229         4.11885
H          13.04051         0.20744         3.65665
H          11.75365         1.43228         5.66423
H          10.41625         3.23836         4.61497
H          10.80107         3.15018         1.99003
H           9.38330         1.39810         1.06923

