%chk=CdCC1dCCdCC1dCCdCdCCdS.chk
%NProcShared=20
# opt freq b3lyp/6-31g(2df,p)

Title Card Required 

0  1
C           0.94761        -0.00272         0.04786
C           2.28208         0.09277         0.08357
C           2.97651         1.32185         0.39036
C           4.09042         1.74042        -0.25814
C           4.59396         2.96204         0.34078
C           3.82393         3.29432         1.38642
C           2.74697         2.31659         1.46154
C           1.71899         2.35768         2.32845
C           1.53684         3.36740         3.34879
C           0.49945         3.40995         4.12780
C          -0.53201         3.52290         4.91413
C          -0.64722         2.69989         6.13562
S          -1.95265         2.76922         7.18525
H           0.45013        -0.94324        -0.15917
H           0.31791         0.86511         0.21555
H           2.88668        -0.78838        -0.12719
H           4.56977         1.26691        -1.10258
H           5.45662         3.51241        -0.00073
H           3.96410         4.14423         2.03124
H           0.94118         1.59961         2.27915
H           2.29301         4.13533         3.46526
H          -1.31465         4.23935         4.69592
H           0.19774         2.01478         6.32451

