%chk=CdCCdC1CdCCdCCdCCdCSCdCCdC1.chk
%NProcShared=20
# opt freq b3lyp/6-31g(2df,p)

Title Card Required 

0  1
C           1.81665        -0.15463        -0.38824
C           3.68533        -0.30816        -0.74129
C           5.71900        -0.70673        -1.65781
C           7.70864        -1.01747        -2.37237
C           5.77231        -1.11654        -2.60019
C           7.11365        -1.18263        -2.75216
C           7.16637        -1.76191        -4.08425
C           8.37706        -1.80745        -4.18896
C           9.22094        -2.22793        -5.15587
C          10.49693        -2.27827        -5.27163
C          11.20046        -2.71257        -6.27030
C          12.37793        -2.85318        -6.59365
S          13.26485        -3.38718        -7.82160
C          14.56877        -2.96565        -6.85228
C          13.76012        -2.31637        -5.35925
C          11.97846        -1.70400        -3.95107
C          10.07173        -1.30144        -3.02536
H           0.65815         0.29187         0.63851
H           0.53413        -0.38467        -0.91723
H           3.07273         0.25130         0.54522
H           4.07612        -0.83981        -1.96384
H           4.76868        -1.44826        -3.36299
H           7.37584        -0.49867        -1.17937
H           6.54673        -2.05690        -4.76258
H           9.28165        -1.83722        -4.25741
H           8.76858        -2.56199        -5.92405
H          10.66599        -1.89587        -4.39229
H          10.85122        -3.06772        -7.08701
H          12.28365        -2.43229        -5.62580
H          15.42107        -2.55958        -5.91851
H          14.71435        -2.92144        -6.75062
H          13.52997        -1.92830        -4.46687
H           9.36560        -0.86032        -2.01100

