%chk=CdCC1dCdC2CdCqNrCCNSC2dCCdNS1.chk
%NProcShared=20
# opt freq b3lyp/6-31g(2df,p)

Title Card Required 

0  1
C           1.21957        -0.34901        -0.26995
C           2.55129        -0.48384        -0.43692
C           3.57626        -1.43311        -1.07335
C           4.78028        -1.09889        -0.68954
C           6.04655        -0.93101        -0.62434
C           6.64096         0.21776        -0.02213
C           7.96302         0.35860         0.17703
N           8.40321         1.44827         0.87218
C           9.01485        -0.68707        -0.21756
C           9.04869        -1.88379         0.76731
N           7.77954        -2.59460         0.99297
S           7.07889        -3.41201        -0.27034
C           6.75234        -1.99565        -1.27290
C           6.91740        -1.89501        -2.60101
C           6.40811        -3.16146        -3.06854
N           5.12486        -3.44524        -3.01801
S           3.73813        -2.23286        -2.76863
H           0.81823         0.44969         0.38818
H           0.44322        -0.98153        -0.66938
H           3.04529         0.27956         0.19823
H           5.93847         0.94474         0.37544
H           7.73566         2.19774         1.02410
H           9.38595         1.68404         0.83334
H          10.00798        -0.23070        -0.27165
H           8.89056        -1.03759        -1.24894
H           9.38735        -1.51362         1.73766
H           9.78295        -2.62002         0.42330
H           7.10177        -1.92669         1.37159
H           6.68506        -1.02800        -3.20525
H           7.26129        -3.89248        -3.25371

