%chk=CdCCqCdSrdNCqOCCr[SH]dS.chk
%NProcShared=20
# opt freq b3lyp/6-31g(2df,p)

Title Card Required 

0  1
C           0.95495        -0.19619        -0.08973
C           2.26046         0.05422        -0.11256
C           2.94166         1.39704        -0.03569
C           2.16063         2.69102        -0.28833
S           0.63318         3.04848         0.30422
N           4.21850         1.38818         0.21081
C           5.05012         2.59271         0.45644
O           4.88736         3.23091         1.74486
C           3.55946         3.64617         1.93839
C           3.16220         4.23216         3.25734
S           6.88717         2.14611         0.38219
S           7.79023         3.92026         0.41252
H           0.55170        -1.20396        -0.13608
H           0.18739         0.56029         0.00577
H           2.94976        -0.79310        -0.14664
H           2.75639         3.48138        -0.75847
H           4.91933         3.31851        -0.35790
H           2.96308         2.74068         1.91817
H           3.31079         4.37540         1.16224
H           3.37741         3.52956         4.06368
H           2.07593         4.39668         3.22437
H           3.65991         5.18225         3.43540
H           7.03420         1.86980        -0.89379

