%chk=CdNC1dCqNrNdCCdCCdC1CCdNC.chk
%NProcShared=20
# opt freq b3lyp/6-31g(2df,p)

Title Card Required 

0  1
C           1.15324        -0.10903         0.01107
N           2.43995         0.02355         0.04683
C           3.04720         0.59958        -1.05527
C           2.66369         1.77511        -1.65470
N           1.54001         2.46765        -1.23153
N           3.38503         2.31896        -2.69466
C           3.31308         1.70875        -3.83686
C           2.56839         0.46194        -4.16197
C           2.97688        -0.69919        -3.64028
C           4.12305        -0.80890        -2.75366
C           4.19204        -0.18820        -1.55399
C           5.47209        -0.25794        -0.75020
C           5.46118         0.46642         0.57947
N           6.48943         0.43326         1.36501
C           6.24520         1.18853         2.59516
H           0.63138        -0.51680         0.89027
H           0.51146         0.19754        -0.83296
H           1.34641         2.33504        -0.24508
H           1.57869         3.43745        -1.52583
H           3.87152         2.13632        -4.68719
H           1.69398         0.56208        -4.79286
H           2.42570        -1.61628        -3.83513
H           4.96436        -1.38464        -3.13627
H           6.29049         0.17811        -1.34078
H           5.73967        -1.30492        -0.55705
H           4.56541         1.03880         0.86186
H           7.14142         1.15104         3.21991
H           5.41895         0.75226         3.16821
H           6.02536         2.24220         2.38696

