%chk=CN1CdCqOrCdCCdC2CdC2CdCC1.chk
%NProcShared=20
# opt freq b3lyp/6-31g(2df,p)

Title Card Required 

0  1
C           1.56242         0.02311         0.26421
N           3.29934         0.02479         0.01730
C           3.29464         0.04287        -1.36528
C           4.40256         0.06659        -2.01529
O           5.46911         0.16818        -1.31600
C           4.80230         0.08357        -3.32800
C           6.08227         0.08037        -3.41311
C           7.16636         0.08829        -4.23366
C           8.21199         0.09476        -3.56364
C           9.51494         0.24299        -3.82115
C           9.12350         0.02843        -2.32317
C           8.17426         0.03382        -0.73749
C           6.86946         0.02048         0.41456
C           4.94376         0.02502         1.04165
H           1.04410         0.04108        -0.77678
H           1.04815         0.94221         0.61884
H           1.04775        -0.90898         0.58534
H           2.41481         0.05710        -2.00933
H           5.26013        -0.09793        -0.43914
H           4.21397         0.10241        -4.17890
H           6.56746         0.06029        -2.51921
H           6.88329         0.13146        -5.27742
H          10.02765         0.02227        -4.79925
H           7.56591         0.05835        -1.50682
H           7.62443         0.00829         1.24410
H           4.64607         0.91138         1.63682
H           4.65074        -0.88799         1.60798

