%chk=CN1CdCNdNCdC2CdCCdC2NdCNdC1.chk
%NProcShared=20
# opt freq b3lyp/6-31g(2df,p)

Title Card Required 

0  1
C           1.97085        -0.42208        -0.15016
N           3.54218        -0.06046        -0.06963
C           3.60264         1.27374         0.22209
C           4.80569         1.80876         0.33628
N           5.17772         3.04301         0.60828
N           6.38702         2.90382         0.57694
C           7.22396         3.89027         0.79755
C           8.52235         3.62904         0.74229
C           9.46506         4.67985         0.97066
C          10.66184         4.10709         0.83839
C          10.45960         2.62976         0.51366
C           9.12458         2.28528         0.44621
N           8.09236         1.28399         0.23045
C           7.78710         0.02076        -0.05211
N           6.39982        -0.76325        -0.22281
C           5.00993        -0.85973        -0.24390
H           1.38051         0.52180         0.05675
H           1.52385        -1.03198         0.65753
H           1.52547        -0.63689        -1.13993
H           2.72551         1.88603         0.35793
H           5.59358         1.11077         0.18005
H           6.78015         4.83706         1.00370
H           9.19701         5.70435         1.19724
H          11.57555         4.68922         0.96198
H          11.39881         2.10014         0.38951
H           8.70604        -0.61095        -0.19885
H           4.65229        -1.88991        -0.47150

