%chk=Cn1nc2c3ncqcccccnc1-2rCdN3.chk
%NProcShared=20
# opt freq b3lyp/6-31g(2df,p)

Title Card Required 

0  1
C           0.97652         0.32388         0.40643
N           2.10832         0.75906         1.20804
N           3.37938         0.54789         0.78420
C           3.87872         1.14550         1.83016
C           5.32054         1.20510         1.94364
N           6.45959         0.98668         1.57979
C           7.02351         1.85082         3.10387
C           6.82055         2.53061         4.30160
C           5.50757         2.79493         4.74753
C           4.51725         3.23376         5.49370
C           3.21247         3.02048         5.11518
C           2.04431         2.77244         4.60057
N           1.76049         2.00515         3.38599
C           2.48022         1.43578         2.38386
C           8.00707         1.40403         2.29953
N           6.39536         1.57256         2.58527
H           0.06639         0.61391         0.91252
H           0.92253        -0.77073         0.22820
H           0.92683         0.73784        -0.62375
H           7.64005         2.88410         4.91526
H           6.09935         3.22876         5.52845
H           4.71529         3.74241         6.43460
H           3.56968         2.51070         4.23405
H           1.47184         3.15487         5.52263
H           8.88214         1.75268         2.91792

