%chk=CNc1cc2ccccccc3cccc-3c[nH]c1d2.chk
%NProcShared=20
# opt freq b3lyp/6-31g(2df,p)

Title Card Required 

0  1
C           2.04637         0.46512         0.48350
N           3.89466         1.23540         1.32158
C           5.36849         2.21485         2.34107
C           5.52604         1.57413         1.03894
C           6.45475         2.68578         1.76842
C           7.31189         2.23141         0.85821
C           7.92629         3.33031         1.11324
C           9.22074         3.24682         1.54445
C           9.85569         4.31734         1.97284
C          11.25570         4.28609         2.11598
C          11.93476         5.39080         2.42368
C          13.25644         5.25592         2.70357
C          14.24721         5.00928         1.82541
C          15.52561         5.14949         2.36393
C          15.04698         5.48848         3.67773
C          13.06432         5.21567         4.13833
C          11.15515         4.73823         4.30727
N           9.13363         4.05032         3.89054
C           7.27008         3.19638         3.17661
H           1.18251        -0.69312        -0.28056
H           0.94622         0.87933        -0.46310
H           0.88603         0.04264         1.09633
H           3.62599         0.18140         0.34983
H           5.26194         0.39520         0.23210
H           7.45903         1.21932         0.68695
H           7.33255         4.23316         1.47864
H           9.67005         2.35177         1.29065
H           9.25056         5.16227         2.43763
H          11.80487         3.42491         1.84429
H          11.43058         6.20477         3.05121
H          13.95727         4.72196         0.83034
H          16.49406         4.99902         1.76874
H          16.23239         5.74052         4.21231
H          12.35505         5.54966         5.13091
H           9.80573         5.10318         4.64174

