%chk=CNC1dCCdCCdCCdCCdNNdC1S.chk
%NProcShared=20
# opt freq b3lyp/6-31g(2df,p)

Title Card Required 

0  1
C           1.15102         0.15231        -0.14073
N           3.00414         0.76677        -0.31875
C           4.26192         2.27901        -0.75650
C           4.70430         1.12572        -0.42758
C           5.45059         2.22412        -0.74904
C           6.74802         2.29840        -0.76646
C           7.50644         3.38724        -1.08531
C           8.79783         3.32890        -1.06630
C           9.45860         4.37176        -1.37062
C          10.90658         4.89176        -1.52131
C          11.38480         6.34512        -1.94577
N           9.93253         5.79207        -1.77869
N           7.73124         4.98126        -1.53817
C           5.89505         3.99600        -1.24796
S           3.29128         3.86187        -1.21709
H           0.69585        -0.94903         0.17965
H           0.64275         0.26240        -1.09898
H           0.64250         0.75947         0.60812
H           3.06092        -0.58291         0.07304
H           5.22769         0.31939        -0.18748
H           4.79549         3.41672        -1.10268
H           7.26030         1.51301        -0.53753
H           6.60347         4.88870        -1.53233
H           9.45271         2.67110        -0.87443
H           8.70349         5.88334        -1.81092
H          11.52642         4.09857        -1.29016
H          11.03524         7.31487        -2.22658
H           1.38442         3.65551        -1.16190

