%chk=CNC1dCCdCCdCCdC2CdCCdCC21C.chk
%NProcShared=20
# opt freq b3lyp/6-31g(2df,p)

Title Card Required 

0  1
C           2.43513         0.44687        -0.79459
N           4.42594         1.11407        -1.69010
C           6.23447         1.93023        -2.67707
C           5.49346         0.95950        -1.45499
C           5.92794         0.60664        -2.71435
C           7.25694         0.28646        -2.28202
C           7.56276         0.56755        -3.58498
C           8.78960         0.74925        -3.23161
C           9.01855         1.17177        -4.68367
C          10.19010         1.55213        -4.24086
C          11.49743         1.26538        -3.38056
C          12.77196         1.39639        -3.60241
C          12.44178         2.06134        -4.77669
C          10.58197         2.36638        -4.83738
C           8.45128         2.47800        -3.92744
C           9.83703         3.44203        -5.34479
H           1.48825        -0.14702         0.44509
H           1.14169        -0.50732        -0.89869
H           1.08138         1.02107        -0.28873
H           3.94034         0.29730        -0.51622
H           5.34496         0.10656        -0.36971
H           4.72988         1.08741        -3.40994
H           7.25832         0.45186        -1.18720
H           6.89699         1.49764        -4.43626
H           9.47744         0.84042        -2.41753
H           8.80827         1.96267        -5.75682
H          11.01261         0.99224        -2.60115
H          13.43933         1.09019        -2.82640
H          13.99541         1.89099        -4.96133
H          11.78293         2.38349        -5.91709
H          11.18554         3.77547        -6.14731
H          10.73674         4.21592        -4.98208
H           9.91029         3.59794        -6.62972

