%chk=CNdc1oc2[nH]c1dCCdNCdCCdCCd2.chk
%NProcShared=20
# opt freq b3lyp/6-31g(2df,p)

Title Card Required 

0  1
C           1.55927        -0.30233        -0.34635
N           3.10425        -1.20536        -1.53386
C           4.30963        -2.10344        -2.70530
O           4.66976        -1.09705        -1.22992
C           5.02016        -1.78584        -2.18240
N           4.12912        -2.71634        -3.35632
C           5.32325        -3.49727        -4.45907
C           6.64018        -4.50944        -5.93714
C           8.66275        -4.97506        -6.94894
N           8.36350        -5.14195        -5.79829
C           8.88308        -4.09939        -5.41730
C           7.76554        -3.79663        -4.86783
C           7.69246        -3.04620        -3.85216
C           6.66425        -2.58057        -3.42061
C           6.25641        -1.92722        -2.37613
H           0.88807         0.63816         0.74540
H           0.77670        -1.01895         0.22776
H           0.76407         0.30641        -0.95194
H           3.11966        -2.62514        -3.51116
H           7.43234        -5.31620        -7.15698
H          10.38279        -5.18326        -6.86666
H           9.82950        -4.02842        -5.18197
H           6.04340        -3.85700        -5.29532
H           8.46434        -2.77582        -3.44036
H           6.63449        -2.93774        -4.65974
H           6.92831        -1.56014        -1.80063

