%chk=CNdC1SCC1dCqCrCdS.chk
%NProcShared=20
# opt freq b3lyp/6-31g(2df,p)

Title Card Required 

0  1
C           1.16907        -0.08425         0.01466
N           2.63594        -0.09340         0.00076
C           3.21047         0.14736         1.11808
S           2.57928         0.44470         2.67936
C           4.24346         1.13704         2.74475
C           4.61565         0.25639         1.53910
C           5.82410        -0.17550         1.12133
C           7.10635         0.13990         1.84730
C           5.88691        -1.04597        -0.09385
S           7.28067        -1.72199        -0.75764
H           0.79158        -0.29905        -0.99023
H           0.76949         0.89683         0.30103
H           0.76187        -0.85263         0.68204
H           4.77037         0.92555         3.68041
H           4.28885         2.21908         2.57402
H           6.93819         0.77372         2.72352
H           7.80604         0.67469         1.19692
H           7.58473        -0.77748         2.20742
H           4.92250        -1.25869        -0.58000

