%chk=CNdC1SCdC1C1dNCdCCdCCdC1.chk
%NProcShared=20
# opt freq b3lyp/6-31g(2df,p)

Title Card Required 

0  1
C           0.94364        -0.04013        -0.09878
N           2.39218        -0.09133        -0.10571
C           2.91370        -0.84848         0.78604
S           4.60824        -1.08477         1.00944
C           3.83614        -2.01023         2.26926
C           2.56957        -1.72073         1.90219
C           1.25976        -2.10618         2.44818
N           0.40597        -2.76502         1.72267
C          -0.83355        -3.04423         2.25683
C          -1.78889        -2.13607         2.52289
C          -1.57572        -0.70980         2.40035
C          -0.68175        -0.05080         3.15699
C           0.14501        -0.70953         4.14936
C           1.05117        -1.65945         3.86180
H           0.59672         0.69028        -0.83542
H           0.57462         0.29667         0.86864
H           0.51200        -1.00894        -0.36382
H           4.26306        -2.62360         3.05847
H          -1.05095        -4.09717         2.42111
H          -2.75486        -2.44583         2.91328
H          -2.14930        -0.19119         1.63642
H          -0.51916         1.01391         3.00898
H          -0.04926        -0.43503         5.18275
H           1.60737        -2.17718         4.63255

