%chk=CNdC1SCdCdCdCdCdCSCNS1.chk
%NProcShared=20
# opt freq b3lyp/6-31g(2df,p)

Title Card Required 

0  1
C           2.30464        -0.20574         0.81961
N           4.22447        -0.45987         1.71764
C           5.73426        -0.57229         2.66040
S           5.67695        -0.90950         0.65114
C           5.71729        -2.40861         1.58356
C           7.03902        -2.60040         1.67947
C           8.27097        -2.67977         1.71608
C           9.47598        -2.71284         1.95774
C          10.65835        -2.82057         2.22298
C          11.86605        -3.11600         2.64246
S          11.95106        -3.82595         4.35043
C          12.41686        -2.13187         4.12943
N          10.39548        -1.53694         4.16087
S           8.13882        -1.04568         3.61748
H           1.53637         0.54050        -0.25067
H           1.09252         0.26681         1.28017
H           1.27691        -0.99986         0.08732
H           4.74613        -2.70543         2.23881
H          12.79937        -2.88034         2.08462
H          13.91194        -1.93809         4.09156
H          13.53966        -3.17281         4.14944
H          11.15744        -1.93309         5.17208

