%chk=COC1dC2COC2dCCdCNdC2NdC2CCdC1.chk
%NProcShared=20
# opt freq b3lyp/6-31g(2df,p)

Title Card Required 

0  1
C           1.25156         0.73253        -0.14504
O           2.50518         1.60319        -0.24732
C           3.59723         2.58081        -0.38102
C           4.72803         1.82375        -0.38620
C           5.46275         0.51466        -0.13839
O           6.53257         1.52444         0.08067
C           5.98079         2.21265        -0.86384
C           6.09961         3.11346        -1.84870
C           4.86653         3.29681        -2.87223
C           4.66523         4.37383        -3.64817
N           3.46323         5.03619        -4.02995
C           3.56656         6.26513        -4.10828
N           3.30256         7.46865        -4.61866
C           4.41388         7.43836        -3.85708
C           5.21443         6.79754        -2.71670
C           4.83499         5.52240        -1.37498
C           3.78241         4.39197        -0.87375
H           1.33554        -0.38913         0.11204
H           0.67547         0.65517        -1.08588
H           0.61917         1.06121         0.68786
H           5.78639        -0.13781        -0.98057
H           5.28986        -0.17506         0.70271
H           6.86470         3.85673        -1.60862
H           3.90602         2.81714        -2.66134
H           5.60110         4.88664        -3.71038
H           6.16558         6.51347        -3.32489
H           5.58081         7.69468        -2.21501
H           5.95059         5.53275        -1.26757
H           2.75712         4.55106        -1.16565

