%chk=COC1dC2CdNNdC2SCqCrdCCdN1.chk
%NProcShared=20
# opt freq b3lyp/6-31g(2df,p)

Title Card Required 

0  1
C           1.12336        -0.10360         0.03685
O           2.47192        -0.48042         0.43778
C           3.70694        -0.52215        -0.27614
C           4.25325         0.74220        -0.27636
C           5.14971         1.56194        -1.17818
N           6.42413         1.43582        -0.95615
N           6.52921         0.71649         0.24198
C           5.33257         0.45690         0.69734
S           5.02338        -0.16339         2.33020
C           5.98557        -1.67318         2.24491
C           7.45323        -1.61137         1.60681
C           5.28065        -2.75874         2.08391
C           5.15276        -2.62997         0.57856
N           4.57245        -1.80160        -0.29990
H           0.53223        -0.85504         0.57440
H           0.82633        -0.16016        -1.02229
H           0.73327         0.85293         0.44775
H           4.77992         2.40656        -1.80044
H           7.66889        -0.86761         0.84715
H           7.80424        -2.51623         1.07281
H           8.15830        -1.46868         2.41934
H           4.36538        -3.27610         2.48667
H           6.01267        -3.30477         0.24910

