%chk=COC1dCNdCC2dCC2dCNdCCdC2SCNNdS12.chk
%NProcShared=20
# opt freq b3lyp/6-31g(2df,p)

Title Card Required 

0  1
C           0.67620         0.42556        -0.26244
O           1.55717         1.34230        -0.87186
C           2.13811         2.42974        -1.58587
C           3.50640         2.03332        -1.32811
N           4.80916         2.36344        -1.55591
C           6.02803         1.99492        -1.30991
C           7.02476         2.90705        -1.91787
C           8.08882         3.45002        -2.27933
C           6.97742         4.14764        -2.74322
C           5.68581         4.43064        -2.93275
N           5.05086         5.42213        -3.58885
C           3.78386         5.20552        -3.43994
C           2.80389         6.03328        -3.98135
C           1.54731         5.66078        -3.74734
S           0.72952         6.92221        -4.69330
C          -0.96076         6.84200        -4.49670
N          -1.36537         5.62073        -3.80320
N          -0.51294         4.31920        -2.77991
S           1.02974         4.06685        -2.74675
H           1.11583        -0.44324         0.31678
H           0.12001        -0.07520        -1.04642
H           0.12013         0.95652         0.50186
H           3.64308         1.10848        -0.71034
H           6.51648         1.15431        -0.74684
H           9.14750         3.30120        -2.17898
H           4.94174         3.81537        -2.52461
H           3.34385         4.36770        -2.88611
H           3.11860         6.89478        -4.56586
H          -1.38553         6.96602        -5.53675
H          -1.32735         7.83625        -4.11849
H          -2.38049         5.63251        -3.69199

