%chk=COc1ccc2ccccqdOroc1-2.chk
%NProcShared=20
# opt freq b3lyp/6-31g(2df,p)

Title Card Required 

0  1
C           1.07077         0.08863        -0.07377
O           2.54747         0.15894        -0.25887
C           3.36236         0.95557         0.55000
C           2.85638         0.92825         2.01721
C           3.71402         1.60035         2.77339
C           4.73687         2.08165         1.91606
C           5.68383         2.77307         2.51942
C           6.64653         3.21230         1.69644
C           7.64223         3.73174         1.17633
C           7.46933         3.29794        -0.54601
O           8.53975         3.94426        -0.49578
O           5.97940         2.39567        -0.57950
C           4.64301         1.75270         0.44160
H           0.64968        -0.59062        -0.83799
H           0.61960         1.07049        -0.25462
H           0.67782        -0.30731         0.88647
H           1.98132         0.46566         2.49901
H           3.72932         1.80266         3.83570
H           5.89237         3.06905         3.49608
H           6.42353         2.70861         0.89196
H           8.30963         4.26566         1.86685

