%chk=COC1CdCCdCNdCCdC1N.chk
%NProcShared=20
# opt freq b3lyp/6-31g(2df,p)

Title Card Required 

0  1
C           1.34312         0.30242        -0.02304
O           2.80165         0.77169         0.16501
C           3.76367         1.49601        -0.88190
C           4.81188         0.58575        -1.08641
C           5.36443         1.12879        -2.16399
C           6.74635         1.27375        -2.05286
C           7.24729         2.09543        -2.95628
N           8.42206         2.64456        -2.70893
C           7.85731         3.78888        -2.30071
C           6.21999         3.89439        -1.40778
C           4.69569         3.14466        -0.78795
N           3.20122         3.69142        -0.84841
H           1.02121        -0.56718         0.63463
H           0.94280         0.00726        -1.01789
H           0.71475         1.10560         0.37962
H           3.07582         1.45438        -1.78319
H           5.21391         0.17869        -0.17443
H           4.80922         1.96142        -2.72215
H           7.24570         1.12892        -1.08866
H           6.55527         2.82702        -3.48001
H           8.41304         4.56899        -2.98825
H           7.31887         3.90823        -0.82217
H           2.67085         4.01781        -0.02430
H           2.55084         2.83035        -0.77218

