%chk=COCC1dNCdCCdc2cnccc2dC1SS.chk
%NProcShared=20
# opt freq b3lyp/6-31g(2df,p)

Title Card Required 

0  1
C           1.09146         0.03456         0.11657
O           2.56408         0.08292         0.11416
C           3.22774         1.01901         1.07223
C           5.07274         1.53574         1.49549
N           5.18516         1.21930         2.73281
C           6.49483         0.90830         2.92876
C           7.13391         1.71287         3.76280
C           8.65126         1.49188         3.33648
C           9.23118         2.63188         3.30175
C          10.79369         2.86192         3.50809
N          11.31053         3.51638         4.48097
C          10.19584         4.18089         4.89409
C           8.75759         4.16781         3.98737
C           8.02412         3.29852         2.38277
C           6.75716         2.44167         1.20129
S           6.30617         0.55762         0.02033
S           5.88650        -1.25002        -1.72393
H           0.71110        -0.62719        -0.69067
H           0.67427         1.02945        -0.07047
H           0.68505        -0.36037         1.05809
H           2.74821         0.57241         2.03840
H           2.64356         1.93827         0.97335
H           7.29463         0.57441         2.04650
H           6.54666         2.77457         3.91897
H           9.11667         1.37897         2.28376
H          11.46053         2.38328         2.83075
H          10.79063         4.68462         5.93952
H           8.53581         4.81516         4.97703
H           5.08751        -2.25133        -2.85314

