%chk=COCCdNNNNCNNC1dCCdC1C1dCS1.chk
%NProcShared=20
# opt freq b3lyp/6-31g(2df,p)

Title Card Required 

0  1
C           1.06502         0.08697         0.06039
O           2.49227         0.08282         0.08914
C           2.98942         0.16184         1.42241
C           4.51560         0.17255         1.46074
N           5.15490         0.24386         2.58512
N           6.49269         0.39790         2.48846
N           7.15659         0.30684         3.73435
N           8.59117         0.29299         3.57053
C           9.25352         0.40643         4.88779
N          10.69860         0.41464         4.68173
N          11.50508         0.50927         5.83014
C          12.85271         0.46585         5.80207
C          13.68240         0.50310         6.97455
C          15.18066         0.51435         6.89074
C          13.74046         0.35904         4.40108
C          12.98046         0.27708         3.08727
C          13.41890         0.20625         1.85465
S          11.73511         0.19566         1.97788
H           0.73106         0.02322        -0.98024
H           0.67076         1.01316         0.49141
H           0.66681        -0.77654         0.60277
H           2.62952        -0.69472         2.00052
H           2.63336         1.09031         1.88408
H           5.02788         0.14831         0.47857
H           6.98618         0.04796         1.66321
H           6.82723        -0.51095         4.25783
H           8.87770         1.09322         3.00629
H           8.98412        -0.45770         5.50200
H           8.94553         1.33097         5.38607
H          10.91204         1.17490         4.03433
H          11.01743         0.47142         6.72680
H          13.21491         0.56734         7.97148
H          16.15470         0.55526         7.33096
H          14.25924         0.16776         1.20254

