%chk=CSC1CSSCCdCCqdSrS1dS.chk
%NProcShared=20
# opt freq b3lyp/6-31g(2df,p)

Title Card Required 

0  1
C           1.05985        -0.02602        -0.09110
S           2.85899        -0.16131        -0.31258
C           3.47743         1.00635         1.02670
C           4.72761         1.73324         0.47114
S           5.05980         3.53845         0.62494
S           3.27513         4.47151         0.94751
C           2.81784         3.97181         2.63152
C           3.98329         3.60490         3.50160
C           4.21421         2.38431         4.03693
C           3.28692         1.25936         3.78767
S           1.82335         1.02934         4.57815
S           3.67146        -0.02042         2.56685
S           5.59632        -0.41951         2.83577
H           0.57837        -0.70351        -0.80377
H           0.71108         0.98813        -0.30609
H           0.75147        -0.31935         0.91569
H           2.63166         1.67428         1.17269
H           4.82089         1.56516        -0.60469
H           5.63880         1.33308         0.90097
H           2.13344         3.13660         2.49397
H           2.22875         4.76353         3.09510
H           4.72500         4.37974         3.68046
H           5.09765         2.18042         4.63104

