%chk=CSC1dCCdCCdCCdCNdC2CdCCdC2S1.chk
%NProcShared=20
# opt freq b3lyp/6-31g(2df,p)

Title Card Required 

0  1
C           1.11690        -0.01111         0.04611
S           3.41548         0.84989         0.43200
C           4.96581         2.75181         1.24327
C           5.01184         1.38043         1.03318
C           5.52335         2.76306         1.44547
C           7.33864         3.06467         1.34848
C           8.19800         5.12383         1.97443
C           8.80987         4.16039         2.57772
C           8.61672         6.21045         3.17169
C           9.95292         6.81760         3.40399
N          10.58888         7.82243         3.85531
C          11.32624         6.86567         3.37346
C          12.30362         8.50157         4.18661
C          13.29392         7.77064         3.83632
C          11.75807         6.34549         3.05639
C           9.83583         5.37678         2.55913
S           6.91915         4.30026         2.40962
H           0.68087        -1.00571        -0.43373
H           0.64785         0.75234        -0.56443
H           0.64908        -0.02206         1.02917
H           5.58634         0.92990         0.37160
H           4.33488         3.80277         1.93486
H           7.59305         2.16328         1.11789
H           6.66682         5.70486         2.79249
H           9.28022         3.73352         1.80189
H           8.01389         6.87481         3.39738
H          10.98027         5.46878         2.82926
H          12.08347         9.53912         4.69557
H          14.37293         8.99245         4.40810
H          13.50687         6.55420         3.21195

