%chk=CSc1cccc2c1SC1dCCdCN2CdC1.chk
%NProcShared=20
# opt freq b3lyp/6-31g(2df,p)

Title Card Required 

0  1
C           1.14644        -0.03784        -0.10050
S           2.95348        -0.14510        -0.41593
C           3.36046        -1.65229         0.52640
C           3.72882        -1.23096         1.91204
C           3.73461        -2.11279         2.99269
C           3.58630        -3.48647         2.69512
C           3.25642        -4.02780         1.35811
C           3.17598        -3.09048         0.14943
S           2.93471        -3.91052        -1.88680
C           3.80005        -5.88515        -2.04659
C           3.15336        -7.11754        -1.93152
C           2.56883        -7.47911        -0.56006
C           2.68240        -6.82487         0.70396
N           3.62623        -5.57787         1.13175
C           4.31831        -5.34395         0.02289
C           4.86133        -6.03739        -1.01921
H           0.72110         0.73982        -0.74516
H           0.84839         0.20380         0.93111
H           0.70321        -0.99360        -0.37989
H           4.02833        -0.19383         2.17137
H           3.87467        -1.74088         4.02756
H           3.85295        -4.14882         3.51771
H           3.71165        -8.12030        -2.12679
H           1.72141        -7.99855        -1.04397
H           3.29246        -7.42190         1.41209
H           3.31403        -5.11453        -0.31501
H           5.07318        -7.05230        -0.66762

