%chk=CSCC1dCCdCCdCSCdCCqCrdC1F.chk
%NProcShared=20
# opt freq b3lyp/6-31g(2df,p)

Title Card Required 

0  1
C           1.04899        -0.08918        -0.09164
S           3.01025        -0.09794        -0.10042
C           4.64710        -1.46248        -1.47550
C           6.96095        -1.94579        -1.95206
C           5.65575        -2.26954        -2.29003
C           7.09078        -2.45448        -2.47883
C           7.85749        -3.25542        -3.30373
C          10.11480        -3.16816        -3.35277
C           9.61746        -3.94036        -3.98185
S          12.12541        -3.09310        -3.13001
C          11.65392        -4.73004        -4.77033
C          12.98113        -4.45543        -4.49248
C          11.03399        -3.94815        -3.90363
C          13.23180        -4.98175        -5.01661
C           9.18414        -2.75164        -2.67719
F           7.80005        -1.44947        -1.45018
H           0.66680         0.64439         0.64805
H           0.66358        -1.05556         0.18971
H           0.66358         0.20019        -1.05566
H           3.24025        -1.03344        -2.24322
H           3.24018        -2.23288        -1.05367
H           5.05977        -2.82490        -2.85008
H           8.60905        -1.89079        -1.91863
H           7.20779        -3.73428        -3.76710
H          10.40363        -2.20318        -2.23730
H           9.48611        -4.58884        -4.62629
H          11.70333        -5.54115        -5.59044
H          14.51326        -4.42131        -4.45997
H          14.40842        -5.98412        -6.03499
H          14.81066        -5.90705        -5.23161
H          14.81012        -5.18085        -5.95103

