%chk=NC12CdCCdCCdCC1dCCdCC2dO.chk
%NProcShared=20
# opt freq b3lyp/6-31g(2df,p)

Title Card Required 

0  1
N           1.13647        -0.08582         0.24345
C           2.58771         0.17836         0.33425
C           3.04211         0.73005         1.64812
C           4.33738         1.13122         1.65686
C           5.22673         0.76742         2.74249
C           5.99460        -0.25284         2.30027
C           5.26900        -1.51261         2.02640
C           4.24239        -1.82429         1.15846
C           3.53468        -1.04171         0.01185
C           3.87015        -1.18707        -1.29543
C           3.95362        -0.00499        -2.16643
C           3.57729         1.22867        -1.82388
C           2.79693         1.43584        -0.59032
O           2.37226         2.55132        -0.35375
H           0.85645        -1.02438         0.49657
H           0.81495         0.07684        -0.71584
H           2.50100         0.40944         2.53011
H           4.87854         1.12064         0.69519
H           4.57404         0.54959         3.59464
H           6.87859        -0.03598         1.69361
H           5.53653        -2.16811         2.86571
H           3.71704        -2.74113         1.42921
H           4.35688        -2.06864        -1.70516
H           4.55702        -0.10255        -3.06781
H           3.83565         2.13782        -2.35580

