%chk=NC1dCqOrCdNCdCNdCCdCNdC1NdO.chk
%NProcShared=20
# opt freq b3lyp/6-31g(2df,p)

Title Card Required 

0  1
N           2.03264         0.18087         0.07862
C           3.94871         0.48332         0.15204
C           3.27490         1.57660         0.41747
O           2.45222         2.52014         0.64654
C           4.56961         1.56563         0.41481
N           5.18466         2.62110         0.67105
C           6.52748         2.58759         0.66292
C           6.98347         3.76784         0.94946
N           8.11650         4.10579         1.03150
C           9.18557         4.60032         1.15157
C          10.95930         4.12657         1.03655
C           9.71242         3.36713         0.85217
N           8.11830         2.04960         0.53231
C           6.34749         0.95089         0.26556
N           5.54471        -0.89861        -0.18346
O           4.23579        -1.81437        -0.40578
H           0.92496         0.86350         0.24435
H           1.00007        -0.65332        -0.12391
H           1.51536         2.37926         0.61234
H           5.17995         0.57326         0.17388
H           7.51897         1.09678         0.30098
H           6.69980         4.66501         1.16727
H           9.09380         5.63489         1.40274
H          11.79823         3.49256         0.88263
H          10.54304         4.86841         1.21665

