%chk=NC1dCCqdCCqNrd[SH]CCdOrC1.chk
%NProcShared=20
# opt freq b3lyp/6-31g(2df,p)

Title Card Required 

0  1
N           1.05564        -0.03204        -0.04981
C           2.36010        -0.00818        -0.03588
C           3.38496         0.88909        -0.03869
C           4.40586        -0.13221        -0.02109
C           5.74417        -0.11646        -0.02332
C           6.55446        -1.35707        -0.02959
N           5.97774        -2.58229        -0.01056
S           8.33792        -1.16557        -0.11195
C           8.88563        -2.89593        -0.00760
C          10.38859        -2.96979         0.00387
O          11.00876        -4.03419         0.01712
C           3.33843        -1.18343         0.00132
H           0.47860         0.80394        -0.05146
H           0.51291        -0.89271        -0.03904
H           3.41076         1.97633        -0.05805
H           6.27329         0.83211        -0.04029
H           4.98130        -2.72930        -0.01201
H           6.49275        -3.45063        -0.04037
H           8.59558        -0.74597         1.10836
H           8.52964        -3.43126        -0.89305
H           8.50540        -3.36185         0.90685
H          10.93303        -2.01183         0.00876
H           3.30002        -1.79503         0.91077
H           3.30061        -1.84889        -0.86937

