%chk=NC1dC2CdC2CqNSCNqOrOrCqdOrCdC1.chk
%NProcShared=20
# opt freq b3lyp/6-31g(2df,p)

Title Card Required 

0  1
N           1.12534        -0.10961         0.09176
C           2.49814        -0.20377         0.07709
C           3.03151        -1.35435        -0.32822
C           3.87748        -2.40902        -0.70451
C           4.47165        -1.35346        -0.27809
C           5.68095        -0.68965         0.14280
N           6.89538        -1.46926        -0.27619
S           7.11642        -2.93531         0.56238
C           8.43375        -3.87413        -0.29476
N           8.56609        -5.22095         0.32275
O           7.38279        -5.97700        -0.07202
O           9.69080        -5.84838        -0.35375
C           5.52009         0.74042        -0.38468
O           6.30329         1.32551        -1.12861
C           4.38237         1.51537         0.23299
C           3.16023         1.02918         0.51115
H           0.56782        -0.86433        -0.29291
H           0.66283         0.74721         0.36641
H           4.18145        -3.41542        -0.81899
H           5.73193        -0.57796         1.23373
H           7.70792        -0.86188        -0.15026
H           9.37002        -3.33621        -0.12016
H           8.26402        -3.96216        -1.37281
H           6.68600        -5.55940         0.46941
H          10.44341        -5.54951         0.18828
H           4.62526         2.53443         0.52044
H           2.50755         1.68629         1.08999

