%chk=NC1dCCdC2CdCqOrCdCCdC2CdC1OO.chk
%NProcShared=20
# opt freq b3lyp/6-31g(2df,p)

Title Card Required 

0  1
N           0.91732         0.00699         0.00150
C           2.27876         0.10118        -0.00401
C           2.81278        -1.09584        -0.02698
C           4.13315        -1.42624         0.01895
C           5.29275        -0.85649         0.08723
C           6.38292        -1.60373         0.61962
C           6.69936        -2.81318         0.23275
O           6.01047        -3.94002        -0.02365
C           8.46844        -2.78179         0.10679
C           8.21633        -1.75418        -0.71980
C           7.15885         0.10471        -0.54311
C           5.70493         0.41519        -0.17074
C           4.46684         1.56422         0.00745
C           3.05386         1.38110         0.01300
O           2.23088         2.58316         0.00620
O           0.77901         2.29021        -0.00180
H           0.41322        -0.86425        -0.00035
H           0.41699         0.87887         0.00327
H           2.23336        -2.01262        -0.01218
H           4.15841        -2.45650         0.05035
H           7.57753        -0.96402         0.91329
H           5.10630        -3.63430         0.00113
H           9.58225        -2.53522         0.09522
H           8.13370        -3.11754        -0.34027
H           7.57406         1.04523        -0.08525
H           4.67753         2.64156         0.00281
H           0.43314         3.19344        -0.00204

