%chk=NC1dC2CdCCdNSSCdC1CqdOrCdC2.chk
%NProcShared=20
# opt freq b3lyp/6-31g(2df,p)

Title Card Required 

0  1
N           0.93576        -0.27853        -0.02583
C           2.45171        -0.95810        -0.32477
C           3.43083        -1.84951        -0.57106
C           1.93496        -2.67199        -0.24613
C           2.90929        -3.34383        -0.93192
C           2.12366        -4.68132        -0.37693
N           3.30356        -5.51704        -0.30307
S           2.22286        -5.95897         0.58358
S           3.19429        -3.55401         1.43363
C           2.74476        -1.05014         1.13104
C           3.26305         0.12829         0.29150
C           4.57218         1.01105         0.01732
O           4.96692         2.17574         0.04158
C           5.47194        -0.04259         0.02468
C           4.96796        -1.28098        -0.00272
H           0.27678        -0.98889         0.03355
H           0.64065         0.76180         0.03423
H           0.74505        -2.60629        -0.04232
H           4.35237        -3.34131        -0.42679
H           0.75618        -4.88906        -0.00920
H           2.53810         0.25506         0.40594
H           6.50459         0.06875         0.03418
H           5.63295        -2.06867         0.05970

