%chk=NC1dCN2NdCCdCNdC2NdCCdNNdC1.chk
%NProcShared=20
# opt freq b3lyp/6-31g(2df,p)

Title Card Required 

0  1
N           0.97818         0.50638         0.29867
C           2.36585         0.71925         0.26352
C           3.14433         0.88299        -0.83989
N           4.57847         0.93932        -0.88430
N           5.13060        -0.31932        -1.00345
C           6.39614        -0.54060        -0.99425
C           7.56398         0.31808        -0.77429
C           7.52838         1.61219        -0.52079
N           6.50084         2.49324        -0.57316
C           5.27114         2.19074        -0.79908
N           4.47342         3.30911        -0.93365
C           4.77602         4.35420        -0.24836
C           3.59183         4.82775         0.53482
N           3.34705         4.04764         1.54923
N           2.45378         3.03591         1.11217
C           2.90369         1.80905         1.20071
H           0.52427         0.73241        -0.58508
H           0.79739        -0.49593         0.41771
H           2.74802         1.63163        -1.53336
H           6.68502        -1.59394        -1.16359
H           8.52769        -0.18207        -0.82901
H           8.48265         2.10955        -0.34383
H           5.75923         4.72111         0.09154
H           2.85636         5.41884        -0.04629
H           3.83152         1.50239         1.73006

