%chk=NCC1dCCdCCdCCdCCdCCdC1.chk
%NProcShared=20
# opt freq b3lyp/6-31g(2df,p)

Title Card Required 

0  1
N           1.28411         0.07907         0.27720
C           3.12829         0.66152         1.16489
C           4.30041         1.72974         2.97656
C           4.47988         0.92326         1.55383
C           5.13035         1.61379         2.57732
C           6.37502         1.68467         2.69324
C           7.08962         2.29800         3.56609
C           8.22945         2.40555         3.83199
C           8.41593         3.37205         4.64101
C           9.73387         3.29367         5.12551
C           9.17599         4.52689         5.70177
C           9.75234         3.84216         6.53130
C           7.53864         3.22585         6.03174
C           5.81626         2.69140         4.84301
H           0.74419        -0.59037        -0.73911
H           0.66055         0.88002        -0.03968
H           2.93391         0.49038        -0.52126
H           2.93279        -0.80614         0.33166
H           5.04084         0.39406         0.74083
H           5.24228         2.37298         3.60438
H           6.89171         1.24682         2.03795
H           7.06214         3.05773         4.62464
H           8.90039         2.09752         3.33650
H           6.80376         3.99469         5.35032
H          10.71321         3.07524         4.81585
H           8.94941         5.06191         7.23690
H          11.49707         4.06416         6.39954
H           8.90759         3.78608         7.05994
H           4.23443         2.74785         4.36750

