%chk=NCCCdCC1dCdCCdCCdCCdCCdC1.chk
%NProcShared=20
# opt freq b3lyp/6-31g(2df,p)

Title Card Required 

0  1
N           1.03815        -0.00983         0.09099
C           2.52837        -0.00470         0.07446
C           3.27737         1.07646        -0.99182
C           5.27623         1.18857        -1.14791
C           6.75782         1.87763        -1.87594
C           8.78467         2.24375        -2.19455
C           7.78602         2.90135        -2.72085
C           7.97263         3.77583        -3.53938
C           9.22310         3.65692        -3.96357
C          10.01132         4.45801        -4.54630
C          11.17621         4.03360        -5.04325
C          12.04657         4.78818        -5.66580
C          13.23052         3.93759        -5.93646
C          13.54014         4.70503        -4.89837
C          12.49425         3.58481        -3.41569
C          10.84854         2.88757        -2.78720
H           0.68267        -0.70859         0.75630
H           0.67574        -0.26962        -0.82734
H           2.85312        -1.01315        -0.17692
H           2.85316         0.23030         1.08830
H           2.70420         1.99979        -0.65201
H           2.70007         0.76199        -1.91431
H           5.17082         0.39725        -0.32237
H           5.45559         2.41600        -2.34178
H           7.39703         4.46237        -3.96024
H           9.54518         2.62144        -3.95015
H           9.60992         5.23814        -5.00983
H          11.42778         2.95388        -4.69484
H          11.84729         5.78953        -6.02347
H          14.00818         3.15225        -5.32004
H          13.91566         5.63091        -6.10585
H          13.77323         4.23115        -4.06267
H          10.31498         1.92038        -2.09326

