%chk=NCCc1ccccnc2sc1dCCdCNd2.chk
%NProcShared=20
# opt freq b3lyp/6-31g(2df,p)

Title Card Required 

0  1
N           1.32983         0.10921        -0.15837
C           2.90615        -0.11146        -0.05573
C           4.31799         0.80076        -0.73568
C           6.32668         0.84793        -1.02007
C           5.72607         2.02023        -1.58545
C           6.50004         2.83906        -2.21643
C           6.75921         3.83550        -3.09809
C           8.22548         3.90737        -2.96869
N           9.38734         4.31276        -3.38330
C          10.30499         3.27406        -2.83782
S           9.24829         1.46651        -2.89969
C           8.19353         1.02883        -1.01173
C           9.55730         0.48499        -0.44326
C          11.30798         0.88258        -0.78972
C          11.70408         1.98547        -1.49092
N          11.50631         3.18552        -2.26565
H           0.84382        -0.59415         0.44718
H           0.87197        -0.11626        -1.05417
H           2.97465        -1.12702        -0.42241
H           2.98695         0.04113         1.02165
H           3.87573         1.82576        -0.46842
H           3.87817         0.77366        -1.80155
H           4.81390         2.32706        -2.12011
H           7.28526         2.31020        -1.90293
H           6.09295         4.41156        -3.61390
H           8.44980         3.38955        -2.04293
H           9.47708        -0.39831         0.18931
H          12.39083         0.55045        -0.60666
H          10.68936         2.00692        -1.21815

