%chk=NCCC1dC2CdNSqdOrNCdC2CdC1.chk
%NProcShared=20
# opt freq b3lyp/6-31g(2df,p)

Title Card Required 

0  1
N           0.95669        -0.06850        -0.00727
C           2.41734        -0.09362         0.05420
C           2.97554         0.16717        -1.33182
C           4.45854         0.18421        -1.50215
C           5.04575         0.39809        -2.70148
C           4.27628         0.64389        -3.93504
N           4.56362         1.03290        -5.12855
S           6.06261         1.42612        -5.59983
O           5.95697         1.01163        -7.10350
N           7.03859         0.37550        -4.79388
C           7.36170         0.53972        -3.47516
C           6.46756         0.41677        -2.48186
C           6.71523         0.18052        -1.07636
C           5.50566         0.03406        -0.49415
H           0.57355        -0.28051         0.91138
H           0.61876        -0.79804        -0.63607
H           2.75327        -1.06907         0.41730
H           2.76099         0.68022         0.74630
H           2.59008         1.13604        -1.68352
H           2.57283        -0.60027        -2.00885
H           3.19513         0.48195        -3.81191
H           7.71549        -0.10970        -5.37054
H           8.42597         0.61936        -3.28502
H           7.67939         0.03514        -0.61230
H           5.33067        -0.20480         0.54516

