%chk=NdC1CdNCdCCdCC2dCCdCCdCC12NN.chk
%NProcShared=20
# opt freq b3lyp/6-31g(2df,p)

Title Card Required 

0  1
N           4.34007        -0.62375        -1.89832
C           5.65113        -0.20054        -2.91546
C           4.12757         0.79267        -1.99797
N           4.65117         1.58944        -1.15836
C           5.21858         1.98913        -2.28989
C           6.50958         1.76313        -2.19041
C           7.07677         2.39284        -3.25453
C           8.38732         2.10765        -3.16218
C           8.54790         2.06313        -4.50551
C           8.64947         3.27352        -5.18913
C           9.19387         3.88793        -6.42508
C          10.10737         3.32326        -7.18345
C          10.13629         1.86814        -6.56684
C           9.10133         0.97729        -5.48580
C           7.46351         0.57342        -4.22743
N           8.88082        -0.39068        -5.10751
N           8.98199        -1.14613        -4.07681
H           3.23834        -0.20176        -0.96669
H           2.75677         0.91313        -2.19664
H           4.62624         1.69205        -3.36426
H           6.96703         0.93220        -1.54202
H           6.53942         2.21458        -4.37520
H           9.03805         1.36964        -2.62892
H           7.93601         3.91812        -4.82365
H           8.78915         4.82329        -6.77426
H          10.51190         3.93560        -8.10661
H          11.30601         1.90002        -7.30350
H          10.46118         0.68601        -5.64170
H           9.98619        -0.62317        -5.33201
H           8.15264        -0.80452        -4.55021
H           9.51519        -0.51652        -3.45821

