%chk=NdC1CdCNdCCdCCdCCdCCqOrdC1.chk
%NProcShared=20
# opt freq b3lyp/6-31g(2df,p)

Title Card Required 

0  1
N           3.12680         0.77025         0.53719
C           5.08117         1.42182         1.00579
C           3.11356         1.33898         0.94458
C           4.58577         1.28854         0.90686
N           4.93283         2.69675         1.92410
C           6.13047         2.43499         1.73675
C           6.83953         3.48227         2.49279
C           8.09252         3.46858         2.48436
C           9.04340         4.46104         3.20120
C          10.23783         4.16451         3.00192
C          10.61691         5.42985         3.90162
C          11.22311         4.35123         3.12728
C           9.68034         2.97968         2.12161
O          11.64158         4.16803         2.96761
C           7.61975         2.15155         1.52963
H           1.36248         0.75965         0.52774
H           2.48165         2.00254         1.42437
H           5.41856         0.36193         0.23734
H           7.35403         1.21197         0.85418
H           6.58792         4.17567         2.99337
H           8.87626         2.19426         1.56472
H           8.73162         5.21624         3.74499
H          11.54650         3.15183         2.25747
H          10.98750         6.20791         4.46050
H          13.00474         4.44760         3.19221
H          12.57843         5.27696         3.78504
H           6.50649         0.86360         0.60167

