%chk=NdC1CdCCdC2CdCCdCCqdC2rS1.chk
%NProcShared=20
# opt freq b3lyp/6-31g(2df,p)

Title Card Required 

0  1
N           2.33917        -0.47697         0.35744
C           3.44402         0.04208        -0.12869
C           3.09302         1.13680        -1.14873
C           4.22807         1.55213        -1.54237
C           5.06374         2.33722        -2.27308
C           6.37869         2.13841        -2.10484
C           7.19300         2.99156        -2.88428
C           8.51540         2.90534        -2.80463
C           9.22923         1.94815        -1.91692
C           8.82413         0.94880        -0.99125
C           7.40315         0.24321        -0.34769
C           7.01345         1.19388        -1.20780
S           5.50933        -0.53335         0.39306
H           1.52240         0.02365        -0.10780
H           2.17710         1.54502        -1.52600
H           4.77384         0.91377        -0.99745
H           4.60501         3.03983        -2.92521
H           6.67575         3.68840        -3.53008
H           9.04703         3.60644        -3.45542
H          10.29310         2.15286        -2.11060
H           9.73415         0.50167        -0.56502
H           6.15526         0.95166        -0.81333

