%chk=NdC1SCdC2CdCCdCCdCCdCCdCCdC12.chk
%NProcShared=20
# opt freq b3lyp/6-31g(2df,p)

Title Card Required 

0  1
N           1.74148         0.90874        -0.15241
C           3.19703         1.89426        -0.20625
S           3.31520        -0.42257        -0.02743
C           4.69049         0.08094        -0.67551
C           4.72176         1.80942        -0.61976
C           5.87670         1.56915        -1.26601
C           6.10040         2.77853        -1.41119
C           6.98514         3.64585        -1.76948
C           7.04380         4.89875        -1.91252
C           8.03524         5.67763        -2.27798
C           7.76522         6.85372        -2.69868
C           8.78310         7.86534        -2.91943
C           8.01816         9.00199        -3.20009
C           8.18673         8.59983        -1.69828
C           6.85902         7.34382        -0.88170
C           5.49905         5.58622        -0.55638
C           4.31661         3.81354        -0.39598
H           1.00928        -0.40080        -0.07365
H           5.37586        -1.03819        -1.03259
H           6.64717         1.00056        -1.62705
H           5.53222         3.55545        -1.32178
H           7.78352         3.22566        -2.15003
H           6.28995         5.57418        -2.01364
H           8.89338         5.40332        -2.65513
H           6.43229         7.02141        -2.39986
H           9.81530         7.66197        -3.20104
H           7.39919        10.00784        -2.52386
H           9.42502         9.38592        -2.58222
H           7.59678         8.80805        -1.22684
H           4.39427         5.05353        -0.05070

