%chk=NdC1CdCCdNCdCCdCCdCCdCNdCCdC1.chk
%NProcShared=20
# opt freq b3lyp/6-31g(2df,p)

Title Card Required 

0  1
N           4.37831         1.17665        -1.32093
C           6.69712         1.53056        -1.69438
C           4.29611         1.20923        -1.35531
C           5.68621         0.94805        -1.07971
C           5.19710         2.11635        -2.31249
N           6.59865         2.45949        -2.67456
C           7.21253         2.95910        -3.20175
C           8.24255         2.98978        -3.23412
C           9.12099         3.72781        -4.01288
C          10.27669         3.71691        -4.00138
C          11.22707         4.91026        -5.26059
C          11.09393         4.21651        -4.52855
C          12.44687         5.15757        -5.52155
C          14.33829         4.62379        -4.95831
N          14.73811         5.76198        -6.15932
C          13.90316         4.53360        -4.86314
C          11.70098         3.31016        -3.57218
C           9.49927         2.49865        -2.71589
H           2.45646         0.78111        -0.90356
H           2.64854         1.57838        -1.74483
H           5.02814         0.23388        -0.32613
H           4.56578         2.55569        -2.77608
H           6.68174         3.38037        -3.64626
H           9.09111         1.75055        -1.92650
H           8.82316         4.29468        -4.61104
H          11.03210         2.68130        -2.90862
H          10.76510         5.32186        -5.69491
H          12.79945         3.80617        -4.09556
H          13.02575         6.01231        -6.42346
H          15.65527         4.55947        -4.89044
H          15.79896         5.24826        -5.61724
H          13.02232         4.41873        -4.74194
H           8.09579         1.65056        -1.82100

