%chk=Ndc1ccccc2c1dCCdCCdCCdCCdCCd2.chk
%NProcShared=20
# opt freq b3lyp/6-31g(2df,p)

Title Card Required 

0  1
N           5.86619        -0.20813        -3.41291
C           7.97182        -0.29085        -4.61706
C           5.64715        -0.17136        -2.88185
C           4.94423        -0.05046        -1.01095
C           6.33520        -0.12661        -2.17186
C           8.01410        -0.14434        -2.46109
C           9.24878        -0.26702        -4.29450
C          10.71804        -0.40606        -6.27077
C          13.16746        -0.49446        -7.68734
C          15.80055        -0.51855        -8.26508
C          14.93298        -0.51389        -8.11828
C          14.90237        -0.44223        -7.08710
C          13.06551        -0.39859        -6.42757
C          12.17111        -0.32940        -5.43514
C          10.19272        -0.28588        -5.31000
C          11.03459        -0.28043        -4.56480
C           9.47931        -0.30526        -4.89647
C           8.83752        -0.19350        -3.20810
H           4.25387        -0.11150        -1.95492
H           3.46093        -0.14081        -2.41540
H           5.08005         0.00710        -0.11894
H           4.73545        -0.22088        -3.63921
H           7.21060        -0.08087        -1.48082
H          14.94542        -0.57064        -9.13624
H          17.62553        -0.50116        -8.00484
H          14.69722        -0.63414       -10.02913
H          15.68785        -0.40948        -6.58121
H          12.65136        -0.53832        -8.59019
H          13.47427        -0.33009        -5.32552
H          10.78318        -0.44854        -7.37521
H          11.43906        -0.23670        -3.90044
H           8.83279        -0.37025        -5.96304
H           9.45339        -0.15906        -2.70191

