%chk=NdCdCCC1dCNSCdCSSC1dO.chk
%NProcShared=20
# opt freq b3lyp/6-31g(2df,p)

Title Card Required 

0  1
N           1.33059         0.01870         0.05946
C           2.49258        -0.05232        -0.00663
C           3.84414        -0.02640        -0.13777
C           4.94752        -0.17917         0.96629
C           6.73896        -0.14654         1.01650
C           6.93458        -0.39364         2.32995
N           8.17601        -0.55428         2.71577
S           8.93905        -0.68931         4.13908
C          10.32769        -0.59040         3.21492
C          11.62131        -0.54544         3.28066
S          12.25895        -0.35615         1.63493
S          10.36317         0.16070         0.16462
C           8.25104        -0.05758        -0.02112
O           8.04720         0.11205        -1.22419
H           0.73913        -0.63797        -0.50159
H           4.16945         0.18836        -1.13519
H           4.65131        -1.12905         1.46908
H           4.62563         0.55729         1.73859
H           6.15775        -0.52120         3.07672
H           8.69076        -0.09775         1.98575
H          10.13657        -0.57264         2.18415
H          12.07722        -0.69015         4.25732

