%chk=NN1CdCCdC2CdCCdCdCdCC2dC1.chk
%NProcShared=20
# opt freq b3lyp/6-31g(2df,p)

Title Card Required 

0  1
N           1.06440        -0.05471        -0.02544
N           2.54525        -0.00413         0.06271
C           3.00241         1.30668        -0.02500
C           4.24630         1.75642        -0.10166
C           5.41927         0.98606         0.01853
C           5.61401        -0.30467         0.23336
C           6.83344        -0.71206         0.98698
C           8.08197        -0.28053         0.66322
C           9.01206        -1.36491         0.14811
C           8.49717        -1.74457        -1.01611
C           7.38765        -2.13636        -1.22016
C           6.04879        -2.45921        -0.94107
C           4.83234        -1.36932        -0.38571
C           3.41863        -1.26812        -0.17215
H           0.65537         0.90134        -0.02957
H           0.66202        -0.42950         0.83593
H           2.25081         2.10619        -0.00772
H           4.47031         2.81653        -0.05393
H           6.28883         1.59757         0.09401
H           6.77970        -1.77587         1.25421
H           8.12086         0.64066         0.04174
H           9.37916        -2.31499         0.58948
H           5.90133        -3.29343        -0.24634
H           2.63510        -2.04259        -0.17235

