%chk=NN1NNdCCCdC2CdC2CdCCdNNN1O.chk
%NProcShared=20
# opt freq b3lyp/6-31g(2df,p)

Title Card Required 

0  1
N           1.99531        -0.56608        -0.03321
N           3.61800        -0.30243         0.36608
N           3.48488         0.96997        -0.26407
N           4.58013         1.57964        -0.18500
C           4.58511         2.82154        -0.39237
C           5.97964         3.14964        -0.44223
C           6.22063         4.54633        -0.66815
C           7.51294         4.82474        -0.71223
C           8.47941         5.65701        -0.84184
C           8.93454         4.40131        -0.64802
C           8.93777         2.91886        -0.43112
C           9.66203         1.77220        -0.30613
C           8.60267         0.46417        -0.12208
N           8.29052        -0.79157        -0.38582
N           6.80943        -1.30878         0.25246
N           5.06828        -1.13283        -0.48815
O           4.52880        -2.48636        -0.73155
H           1.45525         0.17681         0.48701
H           1.47535        -1.37544         0.30952
H           2.61892         1.50051        -0.13924
H           3.79811         3.56728        -0.56307
H           6.36881         2.53240        -1.28055
H           6.37882         2.81225         0.53479
H           5.43858         5.26932        -0.78831
H           8.41391         6.72193        -1.00539
H           7.95789         2.54187        -0.38032
H          10.75320         1.80098        -0.30551
H           7.70365         0.84816         0.30321
H           7.02134        -2.33099         0.12768
H           3.65345        -2.22800        -1.09938

