%chk=NNc1cc2cqs1rdCCdCCdCCdNCdCCd2.chk
%NProcShared=20
# opt freq b3lyp/6-31g(2df,p)

Title Card Required 

0  1
N           0.99753         0.03101        -0.11391
N           2.39313         0.05967        -0.23744
C           3.14625        -0.79849        -1.22296
C           3.95781        -1.77072        -2.47014
C           5.57547        -3.33752        -2.26991
C           4.62662        -2.29871        -1.73158
S           4.19071        -1.58676        -0.35087
C           5.66201        -3.28673        -1.61002
C           6.17784        -3.56704        -0.37104
C           7.13767        -4.46156        -0.12527
C           7.32460        -4.43998         0.98632
C           8.00621        -5.20421         0.34375
C           9.08645        -6.05385         1.62293
N           9.31978        -6.51727         0.37782
C           9.81130        -6.83716         1.34773
C           8.78805        -6.17258        -0.31367
C           7.08716        -4.73755        -1.65170
H           0.65351         0.58362         0.68279
H           0.65378        -0.92658         0.00557
H           2.91907         0.50258         0.57996
H           2.74142        -0.67402        -2.92865
H           6.60344        -4.40096        -2.77268
H           5.81664        -3.07714         0.34956
H           7.88913        -5.41839        -1.26469
H           7.57377        -4.53762         1.79930
H           8.57539        -6.08346        -1.40967
H           9.15978        -5.92210         2.72788
H          10.49150        -7.21345         2.83441
H          10.13182        -7.40582        -0.04234
H           5.88287        -3.77955        -2.87470

