%chk=NNCc1cccccc2cscncc1-2.chk
%NProcShared=20
# opt freq b3lyp/6-31g(2df,p)

Title Card Required 

0  1
N           1.76969         0.33932        -0.27632
N           3.91920         0.67429        -0.75877
C           5.81690         1.66089        -1.60323
C           8.23443         2.32595        -2.22781
C           6.36359         2.53340        -2.38702
C           7.53347         2.10064        -1.93753
C           7.18570         3.36816        -3.12735
C           8.77705         3.43017        -3.13965
C           9.10479         4.17310        -3.91196
C          10.20337         4.24259        -3.96967
C          10.90009         4.87152        -4.54028
S          12.74622         3.37455        -3.13196
C          12.70043         5.26370        -4.92352
N          13.99262         4.85783        -4.54934
C          12.16924         4.38462        -4.14306
C          10.43291         3.31312        -3.13435
H           0.91732        -0.52599         0.53886
H           0.83498        -0.09931        -0.99387
H           3.21368        -0.56332        -0.46610
H           4.26462         2.05014        -1.14461
H           4.24797         1.28396        -1.97427
H           4.89639         2.76985        -2.57716
H           7.32574         1.21141        -1.11787
H           6.46344         3.89392        -3.64349
H           9.67877         2.34278        -2.17261
H           8.68080         4.70666        -4.40482
H          11.11277         5.60984        -5.25147
H          13.54493         6.28648        -5.88795
H          13.88980         4.92501        -4.61771

