%chk=NNdCCNCCdCC1dCSC1dO.chk
%NProcShared=20
# opt freq b3lyp/6-31g(2df,p)

Title Card Required 

0  1
N           1.10003         0.11165         0.10733
N           2.43134         0.04175         0.08259
C           3.05474         1.17123        -0.06238
C           4.57301         1.20128        -0.05899
N           5.06621         2.58254        -0.20805
C           6.53330         2.59545        -0.18710
C           7.06099         3.99943        -0.29011
C           8.35566         4.27882        -0.50618
C           8.91575         5.64106        -0.63424
C           9.96947         6.18216        -1.28439
S           9.66714         7.83292        -0.82764
C           8.44598         6.90539        -0.03972
O           7.63085         7.24873         0.80378
H           0.57639        -0.75737         0.15600
H           0.57862         0.96575        -0.05374
H           2.52085         2.13107        -0.18082
H           4.92222         0.57273        -0.88549
H           4.91760         0.76868         0.88739
H           4.73683         3.13334         0.58503
H           6.91414         2.00277        -1.02927
H           6.89967         2.15268         0.74597
H           6.33323         4.80680        -0.34440
H           9.08231         3.46889        -0.54372
H          10.68133         5.73375        -1.97860

