%chk=NNN1CdNNdCCdCCCdCN1.chk
%NProcShared=20
# opt freq b3lyp/6-31g(2df,p)

Title Card Required 

0  1
N           1.15097         0.27256         0.00053
N           2.95691         1.22488        -0.03906
N           4.10382         3.06527         0.24084
C           4.54587         1.69495         0.11986
N           5.19234         2.76927         0.26217
N           6.42491         2.70128         0.25068
C           7.02542         3.78444         0.37064
C           8.31364         3.70527         0.35178
C           7.91562         4.95623         0.46529
C           9.63728         5.49780         0.58183
C           8.80696         7.06348         0.78195
C           7.17744         6.44172         0.80262
N           5.39968         4.83911         0.54084
H           0.75471        -0.89313        -0.17116
H           0.62666         0.56700        -0.85220
H           2.94400         0.00880        -0.78793
H           5.12243         0.75608         0.02826
H           6.66941         4.90291         0.52796
H           9.26026         3.39787         0.33797
H           6.16302         5.87605         0.49532
H          10.35247         5.72039        -0.27742
H          10.35255         5.50988         1.47394
H           9.36457         8.27102         0.91901
H           8.73658         6.72787         0.73625
H           4.28554         4.49902         0.47694

