%chk=NNNdCdCdCS[C]Cc1c[c]ccc1NCdO.chk
%NProcShared=20
# opt freq b3lyp/6-31g(2df,p)

Title Card Required 

0  2
N           1.24572         0.02813        -0.10980
N           2.66276        -0.14091        -0.18912
N           3.34263         0.86772        -0.77402
C           4.53153         0.82485        -0.75622
C           5.73745         0.84178        -0.78389
C           7.05651         0.88002        -0.80351
S           7.82830         2.04183         0.18983
C           9.50928         1.78279         0.17208
C          10.59449         2.60233         0.72803
C          12.07850         2.55778         0.58323
C          12.70595         1.30676         0.56273
C          14.08415         1.20730         0.42942
C          14.85496         2.36075         0.33268
C          14.25502         3.62942         0.41004
C          12.85936         3.75830         0.57045
N          12.33974         5.09567         0.66684
C          11.07061         5.55142         0.94017
O          10.69711         6.71110         0.80384
H           0.80732        -0.69419         0.47152
H           0.82513        -0.12014        -1.03251
H           3.12149        -0.70374         0.53058
H           7.63842         0.21223        -1.42626
H          10.39804         2.73372         1.80158
H          10.36247         3.48908         0.14713
H          12.10596         0.40594         0.65279
H          15.92939         2.24958         0.20206
H          14.90508         4.50223         0.34299
H          12.98079         5.86690         0.50734
H          10.36285         4.82514         1.33806

