%chk=NNS1dCCdCCdCCqdOrNNdCdCCdC1N.chk
%NProcShared=20
# opt freq b3lyp/6-31g(2df,p)

Title Card Required 

0  1
N           1.38168        -0.15003        -0.33887
N           3.34435        -0.55730        -0.83738
S           5.08846        -1.07606        -2.40629
C           5.16841        -1.52177        -0.76066
C           5.63584        -2.57012        -1.59804
C           6.97251        -2.52030        -1.61363
C           7.62858        -3.62630        -2.32750
C           8.96430        -3.61170        -2.33824
C           9.56538        -4.68830        -3.30926
O           9.04468        -5.21881        -4.30570
N          10.94560        -4.80034        -2.98562
N          11.54013        -5.48526        -4.31191
C          12.36208        -4.73100        -4.51073
C          11.15239        -3.45950        -4.43099
C           9.03514        -2.64361        -4.22350
C           7.13798        -2.13335        -3.76546
N           5.12093        -1.76773        -3.84761
H           0.91241         0.66348         0.49412
H           0.83179        -0.91952         0.25689
H           3.15936        -0.30953         0.51242
H           5.36027        -0.48425        -0.41385
H           5.05101        -3.24702        -2.38931
H           7.43122        -1.57817        -1.29767
H           7.09801        -4.11443        -3.24854
H           9.50519        -2.63516        -2.12324
H          11.51733        -3.77749        -2.77019
H          12.66001        -4.07524        -4.06701
H          10.47879        -3.07570        -4.75841
H           3.72026        -1.53763        -3.97907
H           3.75879        -1.70469        -3.20095

