%chk=NSC1dS2SNdCdCCdCCdCC2dC1.chk
%NProcShared=20
# opt freq b3lyp/6-31g(2df,p)

Title Card Required 

0  1
N           1.19199        -0.10893         0.31969
S           3.06495        -0.31042         0.97960
C           4.01165        -0.30823         2.94610
S           5.75394        -0.91302         3.38066
S           6.27945         0.90631         4.00559
N           7.65681         0.11646         4.38014
C           7.85669         0.31641         5.46263
C           8.24513         0.31043         6.69852
C           8.99542        -0.88918         6.91464
C           8.92652        -1.16413         8.20452
C           7.79066        -2.27304         7.97325
C           6.52103        -1.90047         7.09795
C           5.34222        -1.26697         5.40803
C           3.95632        -0.85086         4.71164
H           0.91485        -0.13295        -0.74613
H           0.71999         0.78550         0.52949
H           7.80782         0.95629         7.45275
H           8.76343        -1.83640         6.29479
H           8.89411        -0.39004         9.00651
H           8.71525        -3.03680         8.34740
H           6.60443        -1.41789         8.25474
H           2.87992        -0.60509         4.56473

