%chk=OC1dCCdCCdC2CdC3CdCCdCN3CdC12.chk
%NProcShared=20
# opt freq b3lyp/6-31g(2df,p)

Title Card Required 

0  1
O           0.96205        -0.26373         0.07080
C           2.36321        -0.22495         0.06649
C           2.91420         1.04214         0.06710
C           4.27677         1.54018         0.06595
C           5.33381         0.76983         0.07292
C           5.24867        -0.60224         0.06495
C           4.47537        -1.65217         0.05129
C           4.89781        -3.08623        -0.02310
C           6.13137        -3.11172         0.03746
C           7.32209        -2.51577         0.07367
C           8.43720        -3.15005         0.06450
C           8.08225        -4.51849         0.08463
C           6.63357        -4.96524         0.17712
N           5.09415        -3.97254        -0.03950
C           3.24245        -3.06127         0.20676
C           3.12973        -1.61433         0.10137
H           0.61522         0.65888         0.06948
H           2.29479         1.94693         0.07382
H           4.53659         2.59278         0.05933
H           6.36887         1.11592         0.06974
H           6.23346        -0.80042         0.06775
H           3.81303        -4.40052         0.01245
H           7.53881        -1.50093         0.06883
H           9.27137        -2.45764         0.06989
H           9.09813        -4.97939         0.07146
H           6.79571        -6.05044         0.08498
H           2.22440        -3.50202         0.07355

