%chk=OC1dNCdCC2dCqS2rC1CSCSCS.chk
%NProcShared=20
# opt freq b3lyp/6-31g(2df,p)

Title Card Required 

0  1
O           1.31985         0.06385         0.35619
C           2.64343         0.05603         0.09516
N           3.14547         1.24245         0.03867
C           4.47017         1.51891        -0.03635
C           5.52123         0.69259        -0.01520
C           5.44682        -0.67041         0.11100
C           4.61329        -1.68752         0.23803
S           6.28587        -2.03968        -0.18233
C           3.19100        -1.40211        -0.03542
C           2.56496        -2.12746        -1.27057
S           0.71287        -2.07268        -1.27539
C           0.15730        -2.67778        -2.90037
S          -1.64567        -2.25514        -2.93284
C          -2.21881        -3.10099        -4.42106
S          -3.99843        -2.79477        -4.66706
H           0.94827         0.93142         0.13235
H           4.68999         2.58492        -0.03846
H           6.51845         1.11085        -0.01413
H           2.76185        -1.86299         0.86723
H           2.82030        -3.18824        -1.21898
H           2.96441        -1.69952        -2.19363
H           0.29848        -3.75921        -2.92099
H           0.67450        -2.18855        -3.73062
H          -2.06258        -4.17875        -4.33703
H          -1.69582        -2.71708        -5.29895
H          -4.42604        -3.28369        -3.49188

