%chk=OC1dC2CdC1NdCNdCCdCCdCCdCqSrC2.chk
%NProcShared=20
# opt freq b3lyp/6-31g(2df,p)

Title Card Required 

0  1
O           2.33544         0.59088         0.70689
C           3.36501         0.12977         1.36783
C           4.01805        -0.26485         0.24879
C           4.94906         0.89945         0.99352
C           4.27784         1.08180         2.24182
N           4.44631         2.00142         3.81152
C           3.83024         2.58370         5.03142
N           2.44146         2.77522         5.46526
C           1.79685         2.31282         4.48707
C           0.59432         1.99572         3.81587
C           0.94704         1.44713         2.64383
C          -0.09012         0.91029         1.82698
C          -0.18463         0.27833         0.63892
C           0.06115        -0.35946        -0.60311
C           1.07391        -0.78192        -1.45018
S           0.18172        -1.57078        -2.95488
C           2.93733        -0.74299        -1.40790
H           2.12405        -0.12792         0.13346
H           5.93736         0.58414         0.76878
H           4.37308         3.13894         5.92881
H           2.54608         1.95501         3.86290
H          -0.41753         2.07682         4.08810
H           2.00697         1.46406         2.39630
H          -1.04143         1.09197         2.21766
H           0.79133         0.59575         0.58120
H          -0.98226        -0.49452        -0.87838
H          -1.18180        -1.42934        -2.67795
H           3.18402        -0.26115        -2.39247
H           3.11619        -1.83021        -1.61356

