%chk=OCC1dCCdCC2dCCdCCdCCdS2CdC1.chk
%NProcShared=20
# opt freq b3lyp/6-31g(2df,p)

Title Card Required 

0  1
O           1.30700         0.39581        -0.09369
C           2.73732         0.30766        -0.27073
C           3.66073         1.51774         0.24143
C           4.38047         1.15360         1.32571
C           4.78512         2.21135         2.23114
C           6.06585         2.52177         2.32651
C           6.40284         3.93149         2.20846
C           6.23152         4.77781         3.21382
C           6.81992         6.08026         3.51070
C           6.70000         7.21377         2.84448
C           5.91842         7.37339         1.63476
C           6.16066         6.78426         0.46508
C           7.25325         5.84312         0.32336
S           7.00301         4.11759         0.56181
C           5.51897         3.29570        -0.55125
C           4.18363         2.95860        -0.26028
H           0.93137        -0.48975        -0.31429
H           2.91968        -0.00055        -1.29794
H           2.96615        -0.58184         0.35432
H           5.13529         0.41347         1.03596
H           4.06247         3.02840         2.34852
H           6.82023         1.84514         1.90864
H           5.59234         4.44998         4.04315
H           7.37787         6.08540         4.45571
H           7.17809         8.11825         3.23737
H           5.03163         7.99097         1.73164
H           5.54308         6.89747        -0.41079
H           8.26163         6.27497         0.11650
H           6.08572         2.48528        -0.99743
H           3.51418         3.69104         0.19851

