%chk=OdC1[N]CC2CNNCC3CdCCdCC3dCCdC12.chk
%NProcShared=20
# opt freq b3lyp/6-31g(2df,p)

Title Card Required 

0  2
O           1.13623        -0.59948        -0.02039
C           2.29071        -0.50611        -0.29387
N           3.02238         0.63497        -0.06085
C           4.22996         0.61598        -0.84423
C           4.51043        -0.86762        -0.91812
C           5.29784        -1.27862        -2.07716
N           5.80760        -2.56152        -1.59406
N           5.97816        -3.30698        -2.70892
C           5.95313        -4.68393        -2.31859
C           5.71948        -5.29306        -3.63144
C           6.41330        -6.63892        -3.54426
C           5.83312        -7.74914        -3.98027
C           4.57168        -7.56695        -4.66011
C           3.80910        -6.42062        -4.61754
C           4.13769        -5.14925        -3.73132
C           3.25369        -4.13044        -3.11394
C           2.89675        -2.91118        -1.83038
C           3.19175        -1.66563        -1.11024
H           5.08028         1.18578        -0.41854
H           4.07997         1.05489        -1.83682
H           5.00623        -1.10534         0.05292
H           6.11090        -0.62000        -2.34731
H           4.58917        -1.30513        -2.92759
H           5.06106        -3.00317        -1.02078
H           6.69232        -3.01193        -3.36117
H           5.10554        -5.01068        -1.68207
H           6.84061        -4.98810        -1.77558
H           6.21294        -4.80215        -4.49951
H           7.42064        -6.67894        -3.12689
H           6.35532        -8.70636        -3.90634
H           4.32554        -8.45393        -5.25483
H           2.95936        -6.42981        -5.29551
H           3.10608        -3.38761        -3.92986
H           2.52670        -3.59234        -1.04173

