%chk=OdC1CdC2CdC3CdCCdC3CdCCdC12.chk
%NProcShared=20
# opt freq b3lyp/6-31g(2df,p)

Title Card Required 

0  1
O           0.88903        -0.26405         0.05282
C           2.10071        -0.14890         0.07411
C           3.24062        -1.07340         0.07367
C           4.13727        -0.05952         0.10261
C           5.74417        -0.03504         0.10069
C           6.63664         1.00662         0.10705
C           8.09004         1.01543         0.09259
C           8.49080         2.31173         0.09938
C           7.36409         3.21001         0.10706
C           6.28045         2.44692         0.12254
C           4.97626         2.82528         0.06577
C           3.80498         3.41781         0.06346
C           2.76714         2.34620         0.06274
C           3.01920         0.97620         0.09134
H           3.33340        -2.15511         0.05233
H           6.16388        -1.04733         0.07825
H           8.72523         0.14721         0.08462
H           9.49220         2.70301         0.10028
H           7.29473         4.28404         0.09444
H           4.75451         1.87725        -0.29952
H           3.70820         4.49181         0.12789
H           1.74390         2.70769         0.04896

