%chk=OdC1NCdN[N]CdCCdCCdCCdNNS1.chk
%NProcShared=20
# opt freq b3lyp/6-31g(2df,p)

Title Card Required 

0  2
O           4.17620        -0.85561         0.46202
C           5.99870        -1.31899         0.77690
N           3.96511        -1.40819         0.83752
C           5.35743        -1.56627         0.94494
N           5.12724        -2.62889         1.66704
N           6.50133        -2.69544         1.71227
C           7.17048        -3.57107         2.30730
C           8.83340        -3.86588         2.50764
C           9.37681        -4.87601         3.19407
C           9.59149        -3.86653         2.50808
C          10.74426        -5.19706         3.41224
C          12.63420        -4.50714         2.94340
C          12.66561        -6.22688         4.11205
N          12.67154        -4.94180         3.23878
N          10.99023        -3.78629         2.45355
S           8.67117        -2.36822         1.48990
H           2.66789        -1.82774         1.12263
H           5.16910        -0.13100        -0.03040
H           6.56954        -4.15873         2.70665
H           9.98062        -2.73491         1.73909
H           8.57395        -5.18657         3.40511
H          11.03713        -2.82380         1.79949
H          10.90700        -6.18325         4.08241
H          13.74754        -4.16680         2.71213
H          13.26290        -7.11343         4.71450
H          11.84300        -5.14433         3.37641

