%chk=Odc1ccc2cccscccccc1-2.chk
%NProcShared=20
# opt freq b3lyp/6-31g(2df,p)

Title Card Required 

0  1
O           1.37927        -1.07761         0.08156
C           2.57258        -1.49115         0.09375
C           3.08612         0.32848         0.07965
C           4.34854         0.07296         0.09123
C           4.43843        -1.56239         0.08423
C           5.71150        -1.59602         0.10350
C           5.90808        -2.87130         0.10668
C           7.00220        -3.45324         0.11308
S           6.87787        -4.95153         0.13697
C           7.71701        -6.25235         0.23452
C           6.44265        -6.84875         0.43879
C           6.81914        -7.99927        -0.03703
C           5.41710        -6.75378        -0.18836
C           4.27435        -5.10415         0.01827
C           3.60497        -3.23298         0.05518
H           2.70982         1.54850         0.07618
H           5.12630         0.94511         0.09876
H           6.54214        -0.98729         0.11270
H           5.24025        -3.60305         0.11549
H           7.93375        -3.20000         0.12186
H           8.78650        -6.29623         0.12377
H           5.30676        -8.08290         0.59443
H           8.16443        -8.33987         0.13815
H           6.17345        -8.30903        -0.29892
H           3.12616        -4.94424         0.06552

