%chk=OdC1SCCSNdC2CdCNdCCdCCdCCdC12.chk
%NProcShared=20
# opt freq b3lyp/6-31g(2df,p)

Title Card Required 

0  1
O           1.63009        -1.26161        -0.41369
C           2.83147        -1.51168        -0.18049
S           3.14912         0.30793         0.97163
C           3.92681         1.61441        -0.13994
C           5.16955         0.99411        -0.73317
S           6.19680         0.12485         0.48548
N           5.58103        -1.43051         0.67573
C           4.47284        -2.05764         0.51170
C           3.56631        -2.88712         1.44488
C           4.49613        -3.49429         2.16945
N           3.98560        -4.64619         2.57853
C           4.81297        -5.46332         3.07421
C           4.13541        -6.74541         3.42985
C           5.23543        -7.46636         3.58310
C           5.21514        -7.81326         2.05253
C           5.00504        -6.56389         0.89779
C           4.59017        -4.81870         0.12431
C           3.93444        -3.16219        -0.30418
H           4.21965         2.55142         0.41086
H           3.25039         1.97032        -0.93459
H           5.82802         1.80509        -1.09762
H           4.89447         0.38187        -1.58827
H           2.61319        -3.64097         0.94809
H           5.57205        -3.33088         1.90339
H           5.95342        -5.35749         3.01213
H           3.44179        -7.27931         2.63781
H           6.21115        -7.29467         4.07515
H           4.84554        -8.91778         2.71148
H           6.15957        -6.89762         1.50173
H           4.53463        -4.71412        -0.99093

