%chk=Odc1ccccccc2cqcc1rdCCd2.chk
%NProcShared=20
# opt freq b3lyp/6-31g(2df,p)

Title Card Required 

0  1
O           3.53721         0.43668         0.27500
C           4.60231        -0.17771         0.01619
C           3.34562        -1.26605        -0.44227
C           4.38485        -1.86671        -0.69530
C           4.81215        -2.97407        -1.16177
C           6.07262        -2.96971        -1.15993
C           6.64267        -4.04385        -1.61241
C           7.83937        -3.83387        -1.52396
C           8.99074        -4.29190        -1.71690
C           9.73672        -3.05026        -1.19387
C           8.28964        -1.42968        -0.51120
C           6.77244        -0.59401        -0.15917
C          10.56326        -4.39595        -1.76073
C           9.48887        -5.39880        -2.18318
H           2.37248        -1.77423        -0.65634
H           5.26974        -1.46775        -0.52724
H           4.20938        -3.69882        -1.46707
H           6.66394        -2.19778        -0.83476
H           6.35989        -4.91147        -1.97790
H           8.01935        -2.95975        -1.15574
H           9.43975        -1.26899        -0.44351
H           6.22663         0.45466         0.28258
H          11.53668        -5.17004        -2.08682
H           8.39111        -6.02598        -2.44738

