%chk=Odc1cccccc2cccccnc-2ccccc1.chk
%NProcShared=20
# opt freq b3lyp/6-31g(2df,p)

Title Card Required 

0  1
O           1.92745        -0.15283        -0.46760
C           3.30663        -0.15367        -0.47057
C           3.25921         0.29737         1.09852
C           4.53801         0.35164         1.28740
C           5.21638         0.69732         2.48982
C           6.55360         0.72044         2.57079
C           7.55359         1.04007         3.68243
C           9.09855         1.09392         3.88638
C           9.31094         1.46725         5.16059
C          10.49911         1.56511         5.49651
C          11.27294         1.70371         6.54660
C          12.40483         1.97380         5.86988
C          13.41461         1.77657         6.36486
N          12.58781         1.31947         4.79273
C          10.97110         0.93995         3.40105
C           9.92162         0.56722         2.06258
C           9.59018         0.06355         0.27922
C           8.65921        -0.30247        -0.99346
C           6.91237        -0.54185        -1.82093
C           5.10726        -0.45227        -1.50920
H           2.55171         0.54601         1.96346
H           5.06349         0.09736         0.40278
H           4.65859         0.94732         3.35932
H           6.88770         0.44310         1.60580
H           6.85986         1.29723         4.57305
H           8.77993         1.69405         5.96709
H          11.11099         1.43335         4.81077
H          10.93475         2.11685         7.43292
H          13.83965         1.39531         5.30034
H          13.14846         2.26467         7.94538
H           8.56531         0.44195         1.60922
H          10.63662        -0.00473         0.04764
H           7.67837        -0.22366        -0.71353
H           8.27438        -0.73255        -2.48421
H           3.83028        -0.61148        -2.06304

