%chk=OdC1CdNNCdCdCCdNNCC1NCdC1CNNNC1.chk
%NProcShared=20
# opt freq b3lyp/6-31g(2df,p)

Title Card Required 

0  1
O           2.52099         0.33740         0.00454
C           4.05706         0.72324         0.08409
C           3.18220         1.15666         1.07594
N           4.39578         1.22676         1.19542
N           5.09521         2.01108         1.85980
C           6.52223         1.94003         2.11620
C           6.90382         2.94760         2.74672
C           7.60775         3.79410         3.29821
C           8.95671         3.21746         3.67026
N           9.51866         4.46165         3.99525
N           9.93157         3.89139         2.36973
C           8.28441         2.74003         1.29265
C           6.17338         1.37898         0.26773
N           4.66700        -0.13882        -0.70208
C           3.51248        -1.64659        -1.81357
C           2.27899        -2.87733        -2.72021
C           0.35257        -3.41679        -3.11478
N          -0.31332        -3.23517        -4.47740
N          -0.02649        -4.28420        -5.40788
N           1.43935        -4.37417        -5.57584
C           2.16798        -4.47582        -4.11340
H           2.48677         1.82402         1.45223
H           4.56598         2.69061         2.28642
H           7.46472         1.23528         1.34960
H           7.33590         4.38373         4.05764
H           9.86055         2.44799         2.48926
H          11.44365         4.20608         2.79904
H           9.22336         4.01680         1.92841
H           9.36170         3.67438         2.25722
H           5.65356         0.10551        -0.12347
H           3.19047        -0.60801        -0.83812
H           3.80209        -2.78541        -2.61115
H          -0.07097        -2.67245        -2.50033
H          -0.12780        -4.41313        -2.77125
H           0.04147        -2.36333        -4.83129
H          -0.50637        -4.06572        -6.31122
H           1.81058        -3.53005        -6.00584
H           3.19561        -4.71740        -4.40772
H           1.77971        -5.60229        -3.87587

