%chk=Odc1cncnccccccc2cccccccc-2cnc1.chk
%NProcShared=20
# opt freq b3lyp/6-31g(2df,p)

Title Card Required 

0  1
O           3.00390        -0.39940         0.65463
C           4.89697        -0.79848         1.52397
C           2.70309        -0.71762         1.34783
N           4.14543        -0.65363         1.20845
C           5.05098        -1.37062         2.77033
N           5.89053        -1.83328         3.77817
C           7.57491        -2.08253         4.32115
C           8.77551        -1.63704         3.35070
C          10.22166        -2.07631         4.30759
C          11.19698        -2.16126         4.49264
C          11.69364        -2.51610         5.26563
C          12.93321        -2.75550         5.78713
C          13.64634        -3.25920         6.88440
C          14.91812        -3.32932         7.03714
C          15.79244        -3.78900         8.03850
C          17.15346        -3.59141         7.60809
C          16.84999        -3.95156         8.39263
C          18.39533        -4.16893         8.86615
C          18.31023        -4.74867        10.12905
C          16.16321        -4.41499         9.40216
C          13.65863        -3.74283         7.93793
C          11.34654        -3.11112         6.56182
N           9.10970        -2.34183         4.88600
C           7.26823        -1.51322         3.08096
H           2.49147        -1.08681         2.15209
H           4.46972        -1.59296         3.25468
H           6.64194        -2.13599         4.43761
H           9.09911        -1.28304         2.57954
H           9.24359        -2.78909         5.86031
H          11.22608        -1.82496         3.76006
H          10.31473        -2.85656         6.00728
H          13.34237        -2.40429         5.02207
H          15.42786        -2.96004         6.23270
H          15.13340        -4.49004         9.56564
H          17.73688        -3.42441         7.24428
H          16.99484        -4.79459        10.22907
H          19.63271        -4.06059         8.63013
H          19.33312        -5.34835        11.43538
H          18.30117        -4.69307        10.00794
H          10.80604        -3.55808         7.53548
H           6.08794        -0.80542         1.53909

