%chk=OdC1CdCCdCCdCCdCOCdC1O.chk
%NProcShared=20
# opt freq b3lyp/6-31g(2df,p)

Title Card Required 

0  1
O           2.86910        -0.18875         0.00597
C           4.36887        -0.79289         0.11979
C           3.08625        -1.47189         0.05527
C           4.41039        -1.56034         0.04397
C           5.00512        -2.75206         0.13749
C           6.21486        -3.06698         0.11062
C           6.81962        -4.14027         0.23757
C           8.02183        -3.93170        -0.20921
C           8.87906        -5.20833         0.16999
C           9.71482        -4.39782        -0.55574
O           9.61994        -4.14168         0.82714
C           8.37859        -2.42065         0.96644
C           6.76810        -1.26640         0.50626
O           5.62734         0.47022         0.02161
H           2.42009        -2.25942         0.11301
H           5.59713        -0.94779        -0.13964
H           4.47541        -3.55693         0.20758
H           7.24917        -2.53874        -0.06222
H           6.56294        -5.03577         0.32686
H           8.50836        -2.34764        -0.51228
H           8.74625        -6.25721         0.37555
H          10.99190        -3.61269        -0.09001
H           9.82926        -3.48790         0.80970
H           4.38958         1.28109        -0.12804

