%chk=Odc1cncc2ccccccscncnn12.chk
%NProcShared=20
# opt freq b3lyp/6-31g(2df,p)

Title Card Required 

0  1
O           1.35873        -1.30826         0.08457
C           2.35856        -2.27598         0.08357
C           2.85459        -0.19190         0.08441
N           4.05158         0.43345         0.08513
C           4.52249        -0.93449         0.08685
C           3.87652        -2.60711         0.08335
C           5.28049        -2.61840         0.09278
C           5.18747        -3.84006         0.09456
C           5.67379        -5.02973         0.09774
C           5.08746        -6.15844         0.09702
C           5.75026        -7.33540         0.09942
C           5.31019        -8.51622         0.10335
S           6.25103        -9.89288         0.11324
C           4.87494       -10.92744         0.09797
N           3.52110       -10.31729         0.04157
C           2.85703        -8.44094         0.07215
N           2.65614        -6.55664         0.08107
N           2.77987        -4.27324         0.07822
H           2.38843         1.30162         0.08588
H           5.78492        -0.24579         0.09306
H           6.28707        -2.33301         0.09782
H           4.30566        -4.21536         0.09675
H           6.64639        -4.94023         0.10195
H           4.11725        -5.91765         0.09751
H           6.75529        -7.37626         0.10434
H           4.38547        -8.10368         0.12024
H           4.31778       -10.06638         0.15553
H           2.63917       -10.12982         0.08930

