%chk=OdC1CdNCdCNdCCdCNdCCdCC2dCCqdC2rS1.chk
%NProcShared=20
# opt freq b3lyp/6-31g(2df,p)

Title Card Required 

0  1
O           4.86914         0.31120        -0.89425
C           6.52946         0.57872        -1.77292
C           4.23023         0.53366        -1.62492
N           5.35011         0.71074        -2.20651
C           5.17811         1.02165        -3.22771
C           6.64700         1.05132        -3.32515
N           7.19052         1.36016        -4.33954
C           8.61869         1.47977        -4.73240
C           9.28033         1.75341        -5.63116
C          10.24129         1.59208        -5.10128
N          10.31033         1.97104        -6.34595
C          11.41085         2.06842        -6.66581
C          12.06100         2.35274        -7.59965
C          13.93188         2.19169        -7.07068
C          14.82924         2.48820        -8.04457
C          13.93208         1.99308        -6.41835
C          11.76386         1.59354        -5.10608
C          13.30879         2.10580        -6.78857
S           9.25875         1.03254        -3.26347
H           2.65732         0.71537        -2.22174
H           4.34977         1.14662        -3.63816
H           7.71191         0.68323        -2.11616
H          10.30694         1.20016        -3.81402
H           8.59768         1.89624        -6.10028
H          11.27288         1.28514        -4.09313
H          12.87042         1.76371        -5.66499
H          12.41942         2.60951        -8.44300
H          15.43362         1.93940        -6.24206
H          15.56288         2.26602        -7.31481
H          13.67037         2.64572        -8.56195

