%chk=Odc1cncncccc2ccc-2cnc1.chk
%NProcShared=20
# opt freq b3lyp/6-31g(2df,p)

Title Card Required 

0  1
O           2.83709         0.12488        -0.33001
C           4.36483         0.38604        -1.01799
C           2.95921         0.95463        -1.17794
N           4.17644         1.30602        -1.37309
C           5.04018         2.17454        -1.95910
N           6.49885         2.33564        -1.51533
C           6.83555         3.06574        -2.50404
C           8.32118         2.56204        -2.01962
C           8.99761         3.33732        -2.94677
C          10.47778         3.10561        -3.42094
C          11.70275         2.56734        -3.04661
C          12.50350         3.25592        -3.85106
C          10.93847         3.57873        -4.56902
C           9.20720         2.69685        -4.58561
N           7.65275         1.67669        -3.58095
C           6.24569         0.75344        -2.29529
H           2.38087         1.53347        -1.80318
H           4.45790         2.41332        -2.85094
H           6.39899         3.12423        -3.60946
H           9.09809         1.60934        -1.92036
H           8.27856         3.96460        -4.20104
H          11.66178         1.90530        -2.26091
H          13.65482         3.25533        -3.83905
H          10.32909         3.99795        -5.05286
H           5.70813         0.40821        -0.75470

