%chk=OdC1CdNCdC2CdNCdNN1S2.chk
%NProcShared=20
# opt freq b3lyp/6-31g(2df,p)

Title Card Required 

0  1
O           4.34805         0.04682         0.65081
C           4.84675        -0.48219        -0.37363
C           3.48260        -0.78319        -1.06682
N           4.29862        -1.11053        -1.86098
C           4.94872        -1.53521        -2.90196
C           6.15114        -0.96652        -2.85038
C           6.73049        -2.02358        -3.64393
N           7.89178        -2.45991        -3.67539
C           8.54643        -1.91651        -2.66877
N           8.03570        -1.58862        -1.46762
N           6.45933        -1.27862        -0.61359
S           6.95786         0.16604        -1.33579
H           2.65945        -1.00089        -1.77674
H           4.42629        -2.20784        -3.52925
H           6.09662        -2.58808        -4.31910
H           9.45065        -2.08372        -3.46346

