%chk=OdC1CdCC2dNSNdCCdNCC12.chk
%NProcShared=20
# opt freq b3lyp/6-31g(2df,p)

Title Card Required 

0  1
O           1.55705        -0.42143        -0.23739
C           2.76114        -0.39517        -0.13724
C           3.42111         0.94468        -0.04298
C           4.64645         0.73283         0.43669
C           4.77893        -0.67905         0.95705
N           5.56003        -1.01473         1.93091
S           4.90546        -2.25363         2.88954
N           6.20079        -3.25626         3.16884
C           6.09820        -4.27470         2.43064
C           6.76065        -4.10138         1.12762
N           6.21169        -3.50438         0.13309
C           4.84198        -2.79652        -0.39012
C           3.79949        -1.62696         0.31494
H           2.94177         1.91248        -0.22812
H           5.34902         1.52360         0.64623
H           5.54871        -5.23571         2.59549
H           7.83898        -4.46085         1.24550
H           4.23443        -3.59084        -0.84793
H           5.29515        -2.25200        -1.22292
H           3.09456        -2.17177         0.95564

