%chk=OdCC1CCdNCdCC2dCCdCCdCC2S1.chk
%NProcShared=20
# opt freq b3lyp/6-31g(2df,p)

Title Card Required 

0  1
O           1.86627        -0.55406         0.74604
C           3.10752        -0.78404         0.70262
C           4.34747        -1.21264         2.17085
C           5.03833        -0.30263         1.11180
C           5.87374         0.02776         2.19100
N           7.10178         0.03990         1.86107
C           7.80172        -0.42483         2.89066
C           8.69368        -1.52502         2.71173
C           9.05666        -2.57348         3.83450
C           8.89066        -3.68050         4.65514
C           9.59715        -4.19827         5.94017
C          10.57234        -3.69261         6.71195
C          10.92392        -2.37091         6.39372
C          10.02225        -1.60100         5.62030
C           8.31020        -1.59157         4.73210
S           6.14209        -2.27383         3.42833
H           3.40216        -0.09103        -0.23186
H           3.61053        -0.58288         2.77672
H           4.70674         0.71698         0.81717
H           5.22463        -0.89899         0.18436
H           5.35584        -0.02334         3.24502
H           7.14426        -0.33922         3.89215
H           9.52446        -1.20695         2.10043
H           7.85271        -3.93133         4.81256
H           9.13824        -5.05792         6.40507
H          11.05582        -4.21062         7.56331
H          11.97216        -2.16495         6.80818
H          10.84048        -0.79934         5.37286
H           8.92433        -0.60100         4.42537

