%chk=OdCc1ccsc2cccccc-2cc1.chk
%NProcShared=20
# opt freq b3lyp/6-31g(2df,p)

Title Card Required 

0  1
O           1.11473        -0.05473        -0.23536
C           2.34471        -0.05222        -0.53503
C           3.52560        -0.04183        -2.15944
C           4.65104        -0.04720        -1.32140
C           5.65374        -0.04174        -2.11953
S           7.23466        -0.04349        -2.18963
C           7.87460        -0.03613        -3.75561
C           9.12174        -0.02883        -3.51002
C           9.71331         0.06432        -4.67221
C          11.04147        -0.00438        -4.75156
C          11.32345        -0.01558        -6.53873
C           9.78701        -0.25369        -6.46951
C           7.78516        -0.19825        -5.25288
C           5.95861        -0.04898        -4.95825
C           4.15891        -0.03150        -3.83161
H           2.85703        -0.06088         0.63313
H           4.86192        -0.05447        -0.28000
H           5.59780        -0.03410        -3.10863
H           9.76012        -0.03622        -2.71327
H           8.73307         0.37487        -6.00725
H          11.94053        -0.03271        -4.17565
H          11.44301        -0.00450        -7.68937
H          11.35189        -0.03532        -6.20812
H           5.38825        -0.01469        -5.92699
H           2.80223        -0.03079        -3.71375

