%chk=OdCC1dC2COCdCCdCCdC2CdC1.chk
%NProcShared=20
# opt freq b3lyp/6-31g(2df,p)

Title Card Required 

0  1
O           0.99380        -0.22764        -0.12449
C           2.21413        -0.15954        -0.10939
C           3.02347         0.70233        -0.90949
C           2.65193         1.89875        -0.76200
C           1.54604         2.23854        -0.23691
O           0.38323         1.81926         0.07476
C          -0.73143         3.10247        -0.15933
C          -1.16175         2.18625         0.69921
C          -1.55929         2.96614         1.93857
C           0.00530         3.03596         1.77518
C           1.30645         3.93145         0.28280
C           2.63131         3.34607        -0.79015
C           4.09987         2.33104        -1.72081
C           4.18446         0.90236        -1.55471
H           2.77676        -0.77002         0.54827
H           0.95781         2.84682        -1.33661
H           2.35750         2.87616         0.86418
H          -0.75055         4.27781         0.72518
H          -0.87138         0.96971         1.35785
H          -2.58370         3.53528         2.13470
H          -1.27361         2.19777         2.24807
H           2.04577         4.35185        -0.73779
H           5.20877         2.33136        -2.45988
H           4.71312        -0.05741        -1.75564

