%chk=OdCqOrC1dCCdCCdCCdCCdCNdC1.chk
%NProcShared=20
# opt freq b3lyp/6-31g(2df,p)

Title Card Required 

0  1
O           1.48685        -0.08092        -0.44712
C           2.85774        -0.06735        -0.86517
O           3.06745        -0.12369         0.87014
C           4.15874        -0.01194        -2.57168
C           4.54139        -0.05359        -1.28880
C           5.40063        -0.02070        -2.30190
C           6.66978        -0.01879        -2.36045
C           7.42769         0.02040        -3.56760
C           8.68850         0.01300        -3.33961
C           9.34095         0.04838        -4.42925
C          10.56743         0.06293        -4.87757
C          11.07936         0.12049        -6.65008
C           9.94175         0.09726        -5.93486
N           7.80962         0.07283        -5.18221
C           5.95068         0.04323        -4.27079
H           3.94884        -0.13584         1.24427
H           5.00290        -0.08421        -0.34589
H           5.13889         0.01274        -3.33163
H           7.12895        -0.04664        -1.50279
H           6.64787         0.07476        -5.24163
H           9.35365        -0.00967        -2.64149
H           8.68233         0.10252        -6.09682
H          11.36995         0.04067        -4.19190
H          10.83970         0.15429        -7.69104
H          11.66010         0.09296        -5.80242
H           4.41780         0.05317        -4.57685

