%chk=OdCSC1dCCdCCdCCqdOrCdN1.chk
%NProcShared=20
# opt freq b3lyp/6-31g(2df,p)

Title Card Required 

0  1
O           1.25745        -0.18089        -0.11326
C           2.53788        -0.10527        -0.00417
S           4.33779        -0.82317        -1.03985
C           6.62247        -0.89300        -1.14059
C           5.80217        -1.51514        -2.03812
C           7.09286        -1.34937        -1.79897
C           7.71851        -2.05753        -2.82059
C           9.04084        -1.91387        -2.61335
C          10.07118        -2.36161        -3.25927
C          11.81794        -1.79208        -2.43765
O          12.56831        -1.26047        -1.67072
C          10.48712        -1.54407        -2.07985
N           8.68866        -1.02507        -1.33111
H           2.82245         0.48278         0.84418
H           5.42209        -2.07102        -2.84005
H           7.74209        -0.43786        -0.48398
H           7.55828        -2.64130        -3.66277
H           9.87575        -0.94559        -1.21646
H          10.18766        -2.95310        -4.11259
H          11.50341        -2.26687        -3.12260

