%chk=OdNc1ccccccc[nH][c]cnc1.chk
%NProcShared=20
# opt freq b3lyp/6-31g(2df,p)

Title Card Required 

0  2
O           1.70674        -0.35459        -0.33651
N           3.08868        -1.07038        -0.78307
C           4.32063        -2.29776        -1.54878
C           4.62110        -1.06818        -0.78170
C           5.44645        -1.94674        -1.32980
C           6.71053        -1.99033        -1.35699
C           7.60155        -3.05740        -2.02269
C           8.85213        -2.93811        -1.94827
C           9.50594        -3.92473        -2.56379
C          10.73661        -3.88444        -2.53866
N          10.80263        -5.24951        -3.39027
C          12.01484        -5.23732        -3.38267
C          10.17004        -5.33014        -3.44058
N           8.02478        -4.54001        -2.94764
C           6.16411        -3.70102        -2.42423
H           4.96108        -0.19501        -0.23696
H           5.45178        -2.79694        -1.86020
H           7.07696        -1.22303        -0.87830
H           6.88573        -4.47619        -2.90783
H           9.28087        -2.19900        -1.48717
H           8.87792        -5.33629        -3.44442
H          11.51133        -3.42814        -2.25399
H          10.52781        -6.50648        -4.17445
H          11.60673        -6.23556        -4.00543
H           4.61793        -3.84274        -2.51264

