%chk=OdNNCCCNCCdC1CdCSCdC1.chk
%NProcShared=20
# opt freq b3lyp/6-31g(2df,p)

Title Card Required 

0  1
O           1.04457         0.17335        -0.05734
N           2.26562         0.03913         0.05463
N           2.86117         0.93458        -0.65369
C           4.30003         0.94353        -0.71093
C           4.81101         2.04026        -1.64766
C           6.33736         2.05445        -1.65977
N           6.81496         3.11032        -2.55588
C           8.27251         3.11454        -2.55431
C           8.83651         4.17504        -3.44826
C          10.16117         4.34684        -3.65006
C          11.13221         3.53471        -2.93134
C          12.41569         3.44120        -3.30446
S          13.11170         4.25010        -4.66607
C          11.88642         5.43164        -5.00509
C          10.62721         5.39754        -4.53994
H           2.29481         1.52684        -1.24777
H           4.68400        -0.02538        -1.05521
H           4.70227         1.12265         0.29417
H           4.43642         3.01828        -1.31960
H           4.43744         1.86980        -2.66552
H           6.71047         1.07864        -1.99572
H           6.71300         2.22433        -0.64242
H           6.48619         4.01351        -2.21627
H           8.63501         2.13729        -2.89833
H           8.62723         3.28784        -1.53107
H           8.12298         4.79105        -3.99126
H          10.81559         2.97770        -2.05645
H          13.07393         2.79838        -2.72897
H          12.18088         6.24059        -5.66522
H           9.93349         6.18276        -4.82627

