%chk=OdS1CdCCdCc2ccnccccn21.chk
%NProcShared=20
# opt freq b3lyp/6-31g(2df,p)

Title Card Required 

0  1
O           4.74808         0.20200        -2.23030
S           6.00945         0.97756        -3.31015
C           4.07290         1.57364        -1.97326
C           4.86857         2.15508        -1.09771
C           5.13198         3.10477        -2.31322
C           6.46442         3.19103        -2.51333
C           7.03757         3.53633        -3.77272
C           8.16991         4.18533        -3.60385
C           8.43363         5.18765        -4.69256
N           9.55870         5.80161        -4.54870
C          10.27903         6.26559        -5.59539
C          11.57797         5.82932        -5.66145
C          10.49313         4.40957        -6.10889
C           9.35402         3.17836        -5.21496
N           7.82924         2.47402        -4.18663
H           2.72313         1.78928        -2.00986
H           5.47576         1.07751        -0.65746
H           4.32054         3.07927        -3.18682
H           7.15072         2.30587        -1.97803
H           9.10511         3.43947        -3.20722
H           7.89757         5.17889        -5.65513
H           9.79563         6.45869        -6.63403
H          12.64243         5.44796        -5.40181
H          11.16064         5.53482        -6.95606
H          10.77983         3.71199        -5.23960

