%chk=ONCCNNNNdCC1dCCdCCdCCdC1.chk
%NProcShared=20
# opt freq b3lyp/6-31g(2df,p)

Title Card Required 

0  1
O           0.90758        -0.14153         0.07665
N           2.35461        -0.02045        -0.04037
C           2.81124        -1.31502        -0.58325
C           4.35607        -1.38106        -0.60554
N           4.83442        -2.67763        -1.13411
N           6.27404        -2.68838        -1.13591
N           6.75948        -3.86688        -1.72415
N           8.09049        -4.01548        -1.67362
C           8.56712        -5.11551        -2.17956
C          10.05676        -5.44844        -2.29404
C          10.72955        -5.12478        -1.18237
C          12.06586        -5.29911        -0.69370
C          13.19135        -5.86900        -1.13311
C          13.58947        -6.49032        -2.35159
C          12.97826        -6.71594        -3.51686
C          11.64864        -6.52959        -4.01180
C          10.48630        -6.06823        -3.52618
H           0.62562         0.79206         0.15168
H           2.64113         0.01399         0.94128
H           2.41863        -1.44777        -1.59875
H           2.42016        -2.13050         0.03848
H           4.72618        -1.23648         0.41812
H           4.73870        -0.55575        -1.22048
H           4.50549        -2.74536        -2.10023
H           6.67049        -2.56518        -0.19829
H           6.11820        -4.64485        -1.87569
H           7.90116        -5.90343        -2.58511
H          10.14476        -4.61248        -0.41294
H          12.16008        -4.86962         0.30731
H          14.02085        -5.83706        -0.42012
H          14.63365        -6.81584        -2.31293
H          13.62804        -7.16301        -4.27517
H          11.59323        -6.87711        -5.04876
H           9.66920        -6.13686        -4.24991

