%chk=ONCOC1CdCCdCdc2cccnc2dC2CdC21.chk
%NProcShared=20
# opt freq b3lyp/6-31g(2df,p)

Title Card Required 

0  1
O           1.11620        -0.11488        -0.10527
N           2.61298        -0.07413        -0.13217
C           3.08064        -0.51961        -1.56125
O           4.57125        -0.94429        -1.76925
C           5.28030        -1.20777        -3.34393
C           6.43852        -0.41963        -2.80697
C           7.28802         0.00716        -3.74253
C           8.71400        -0.12504        -3.53796
C           9.30535        -0.53457        -4.58928
C           9.52291        -1.06014        -5.76139
C          10.24622        -0.22103        -6.68306
C          11.09448        -0.76788        -7.54523
C          10.68098        -2.18451        -7.81312
N           9.66339        -2.86457        -7.26065
C           8.85290        -2.30461        -6.11679
C           7.63729        -2.80361        -5.49133
C           7.55106        -3.05800        -4.09696
C           6.40021        -2.44021        -4.25699
H           0.82971         0.24823         0.76900
H           2.79779        -0.83049         0.52746
H           2.77934         0.32528        -2.19761
H           2.48490        -1.40725        -1.76440
H           4.63202        -2.07628        -3.21275
H           6.74187        -0.47470        -1.76229
H           6.93876        -0.10060        -4.78241
H           9.06862        -0.56177        -2.60697
H          10.10157         0.84797        -6.62803
H          11.78639        -0.18143        -8.15445
H          11.30158        -2.58093        -8.67460
H           8.30334        -3.29575        -3.37898

