%chk=OOC1dCCdCCdCNdCCdNCdC2CdCN1N2.chk
%NProcShared=20
# opt freq b3lyp/6-31g(2df,p)

Title Card Required 

0  1
O           4.44485        -0.40714        -1.25137
O           6.69874        -0.69822        -2.37196
C           8.93922        -1.48080        -3.28648
C           7.02767        -1.23901        -2.36275
C           5.42311        -2.16705        -2.11343
C           6.84632        -2.37435        -1.72597
C           7.49499        -3.15678        -2.98702
C           8.91015        -3.27869        -2.85854
N           9.29684        -3.39912        -4.13892
C          10.40473        -3.83026        -3.64620
C          11.31779        -4.37538        -4.86705
N          12.44107        -4.81604        -4.38723
C          13.15985        -5.14983        -5.64621
C          14.52761        -4.70236        -5.67668
C          14.98407        -3.83925        -4.79361
C          13.34163        -2.88173        -4.43942
N          11.04827        -2.31514        -4.23266
N          12.88101        -3.50333        -5.49901
H           2.93763        -0.03241        -0.47754
H           5.88355        -0.62361        -1.09465
H           4.60631        -2.24771        -2.81320
H           7.49865        -1.10818        -0.92142
H           6.76272        -3.06382        -3.80183
H           9.53149        -2.13968        -2.02977
H          11.18140        -2.81177        -2.79718
H          10.94329        -4.71261        -5.76978
H          12.99246        -5.57261        -6.66669
H          15.57726        -3.81201        -3.85993
H          15.07990        -3.08300        -4.93264
H          14.09834        -4.52921        -6.30157

