%chk=OOCC1dNCdCCdCCdCNNNNNN1.chk
%NProcShared=20
# opt freq b3lyp/6-31g(2df,p)

Title Card Required 

0  1
O           1.27749        -0.15567        -0.20341
O           3.26588        -0.11747        -0.31320
C           4.77067        -0.55941        -1.63183
C           6.85732        -0.52988        -2.57878
N           5.77467        -1.44523        -2.40840
C           6.72798        -2.15591        -2.01346
C           7.13817        -2.63545        -3.17523
C           8.50451        -2.89268        -3.14994
C           9.13611        -3.00811        -4.27568
C          10.48793        -3.29628        -3.98464
C          11.22961        -3.71534        -5.00035
N          12.55899        -4.06086        -4.74871
N          13.52382        -4.30772        -6.06400
N          14.48380        -3.43884        -5.38361
N          12.91205        -2.06837        -5.29370
N          11.00294        -1.27090        -4.19002
N           9.03590        -0.88003        -3.14029
H           0.83224         0.36697         0.66597
H           3.35220        -0.39237        -2.10554
H           3.56803        -1.54057        -1.34583
H           7.38244        -1.69701        -1.12469
H           6.42632        -2.62057        -4.00381
H           9.42829        -2.57742        -2.48171
H           8.59277        -3.26856        -5.10622
H          11.03259        -2.63739        -2.95978
H          10.83065        -3.91883        -5.98120
H          13.12428        -3.39232        -4.01699
H          13.16462        -3.75809        -6.95953
H          15.15141        -4.24019        -4.80468
H          13.81304        -2.80005        -6.23033
H          12.29657        -1.98992        -4.14409
H           8.94996        -0.74066        -1.90743

