%chk=SC1dCCdNCSCdCCdCCdCCdCCdCCdC1.chk
%NProcShared=20
# opt freq b3lyp/6-31g(2df,p)

Title Card Required 

0  1
S           4.58333         1.04884        -1.03904
C           7.64452         1.55551        -1.57456
C           5.34323         1.46193        -1.47551
C           6.17942         0.78777        -0.76312
N           5.76961         1.97258        -2.01501
C           7.68615         2.42857        -2.49677
S           7.82378         3.28275        -3.39935
C           9.34632         3.30836        -3.42629
C          10.17631         3.83169        -3.97936
C          11.28340         3.92097        -4.07344
C          12.30084         4.65020        -4.84413
C          13.54377         4.38959        -4.56931
C          13.72713         5.31052        -5.54312
C          15.97913         4.44840        -4.63137
C          16.16088         5.23942        -5.46546
C          16.62064         5.84355        -6.10380
C          14.80118         4.85030        -5.05415
C          12.67045         3.51114        -3.64003
C          10.27924         2.43935        -2.50850
H           2.18877         0.90962        -0.89189
H           3.34312         1.61523        -1.63743
H           5.62715         0.14832        -0.08749
H           7.71290         0.53735        -2.31317
H           7.71288         2.34915        -0.59844
H          11.11256         3.03732        -3.13977
H           9.72508         4.34058        -4.51707
H          12.11839         2.74824        -2.83435
H          11.87643         5.17997        -5.40398
H          14.36334         3.25031        -3.36486
H          14.12035         5.98342        -6.25280
H          16.86439         4.69082        -4.88723
H          16.09169         6.64145        -6.94754
H          18.48116         5.71440        -5.96862
H          16.32381         5.97943        -6.25197
H          14.57089         3.89332        -4.04489
H           9.08492         1.56952        -1.58929

