%chk=SCdCCdCC1dCNdCSCdCCdCCdC1.chk
%NProcShared=20
# opt freq b3lyp/6-31g(2df,p)

Title Card Required 

0  1
S           1.10910        -0.07832         0.05801
C           2.93738        -0.11017         0.07181
C           3.80162        -1.19902         0.54366
C           5.76802        -1.47344         0.66258
C           7.27536        -2.48839         1.10241
C           9.36933        -3.16068         1.39374
C           7.98636        -3.64343         1.60294
N           9.17419        -3.91013         1.71851
C           9.92595        -4.73297         2.07508
S          12.59131        -3.78357         1.66366
C          11.34464        -5.77624         2.52718
C          13.07230        -4.72385         2.07113
C          12.90764        -6.61106         2.88895
C          14.51095        -6.75201         2.95003
C          12.74584        -6.00360         2.62571
C          11.29408        -4.46773         1.96014
H           0.65499         1.10887        -0.45645
H           3.39704         0.78996        -0.31826
H           3.07823        -1.99509         0.88864
H           5.68035        -0.36258         0.18119
H           5.81720        -3.01855         1.33215
H           7.32493        -4.38454         1.92409
H           9.47366        -5.57978         2.44205
H          11.26097        -6.79737         2.96969
H          14.60788        -5.13113         2.24763
H          13.32197        -7.96877         3.47731
H          15.95079        -6.82605         2.98211
H          14.23789        -6.88144         3.00612
H          10.84404        -3.10746         1.37068

