%chk=SdC1CdCSSCdC1SCdCCCt[SH].chk
%NProcShared=20
# opt freq b3lyp/6-31g(2df,p)

Title Card Required 

0  1
S           0.86131        -0.70120        -0.14250
C           2.48020        -0.15953         0.07205
C           3.34917        -1.38270         0.23194
C           4.63010        -1.74826         0.06805
S           5.94255        -0.78798        -0.42936
S           5.62872         0.75374         0.84088
C           4.37658         1.57722        -0.01842
C           3.05349         1.27512        -0.04408
S           2.06372         2.76401        -0.23647
C           0.43678         2.41449         0.14927
C          -0.59956         3.25705         0.15914
C          -2.01889         2.69042         0.26054
C          -2.91886         3.91524         0.27717
S          -3.83814         5.16634         0.29417
H           2.73911        -2.25590         0.47125
H           4.82824        -2.80564         0.21362
H           4.71858         2.55179        -0.36939
H           0.11337         1.42387         0.34140
H          -0.44653         4.32786         0.03927
H          -2.15710         2.11965         1.18382
H          -2.25487         2.07390        -0.61231
H          -4.86493         4.73511         1.04224

