%chk=Sdc1sccccccc2ccc-2s1.chk
%NProcShared=20
# opt freq b3lyp/6-31g(2df,p)

Title Card Required 

0  1
S           4.12066         0.45260        -0.10528
C           6.20791         0.04874        -0.01732
S           4.25368        -1.20044         0.25474
C           5.43348        -2.14727         0.46096
C           5.68201        -3.32645         0.71778
C           7.00039        -3.40427         0.73473
C           7.36329        -4.59315         0.99368
C           8.64741        -4.63575         1.00270
C           9.60776        -5.41581         1.17191
C          10.43470        -4.29012         0.92868
C          11.71522        -4.58990         1.00197
C          11.63872        -2.96009         0.63620
C          10.13319        -2.54724         0.54853
S           8.30675        -0.86583         0.18092
H           6.27896        -1.61261         0.34451
H           4.96773        -4.02463         0.86985
H           7.73672        -2.68476         0.57802
H           6.87781        -5.44764         1.17978
H           8.85284        -3.66285         0.79108
H           9.63321        -6.44681         1.39759
H          11.68548        -5.94051         1.28255
H          12.65827        -3.71798         0.80082

