%chk=Sdc1sc2ccccccccccc1-2.chk
%NProcShared=20
# opt freq b3lyp/6-31g(2df,p)

Title Card Required 

0  1
S           4.77306         0.71723        -0.75258
C           7.09604         1.13486        -1.14525
S           4.77753         1.36573        -1.36233
C           7.02977         1.80491        -1.77539
C           6.10978         2.47390        -2.40437
C           7.44108         2.37607        -2.31237
C           8.00695         3.18748        -3.07533
C           9.45560         3.29055        -3.17224
C           9.97028         4.10429        -3.93740
C          11.33915         4.17458        -4.00349
C          11.92506         5.01270        -4.79156
C          12.07633         4.14734        -3.97787
C          13.08835         4.19787        -4.02538
C          11.14134         3.01064        -2.90903
C           9.23771         2.09197        -2.04524
H           5.24657         2.78977        -2.70136
H           8.37303         1.29201        -1.29304
H           7.48221         3.74430        -3.59890
H          10.48640         2.24414        -2.18832
H           9.58191         4.68744        -4.48573
H          12.32358         2.96979        -2.87064
H          11.83547         5.65885        -5.39912
H          13.88732         3.93032        -3.77381
H          13.66417         5.47144        -5.22291
H          13.04733         3.39667        -3.27202

