%chk=SdC1SCdC2CdCCdNC1dNCd[SH]S2.chk
%NProcShared=20
# opt freq b3lyp/6-31g(2df,p)

Title Card Required 

0  1
S           2.01650         1.59421        -1.32883
C           3.80481         1.61788        -1.68050
S           4.13328         0.26797        -0.57895
C           5.70153         0.45472        -0.21985
C           6.20659         1.67946        -0.46719
C           7.63185         1.55640        -0.78365
C           8.16330         2.09747        -1.92711
C           7.63691         3.38951        -1.58832
N           6.38908         3.76407        -2.04199
C           5.01761         2.94702        -2.42608
N           4.30469         3.82859        -3.18116
C           3.93442         4.95149        -2.46598
S           3.26635         4.27200        -0.94740
S           5.16050         3.29110         0.25273
H           6.23096        -0.43260         0.05623
H           8.17227         0.67902        -0.43838
H           8.30820         2.61614        -2.85254
H           8.69162         3.81477        -1.12873
H           3.70486         5.95908        -2.95557
H           2.81640         3.33354        -1.94691

