%chk=CC1CCCqCCCdOrC1C1OCO1.chk
%NProcShared=20
# opt freq b3lyp/6-31g(2df,p)

Title Card Required 

0  1
C           1.72158         0.02758        -0.79569
C           0.90284         0.02912         0.50200
C          -0.04724         1.22458         0.52927
C          -1.21925         0.79997        -0.35179
C          -1.25290        -0.74425        -0.31003
C          -2.62501        -1.28773         0.09998
C          -2.68259        -2.81194         0.03957
C          -3.94857        -3.32088         0.66580
O          -4.17970        -4.52269         0.79830
C          -0.05550        -1.17002         0.58974
C          -0.48413        -1.51179         2.02464
O           0.51448        -1.35426         3.04393
C          -0.49958        -0.76092         3.87588
O          -1.25128        -0.49378         2.68817
H           2.41731         0.87341        -0.79898
H           1.09366         0.12083        -1.68823
H           2.30402        -0.89326        -0.89519
H           1.60415         0.05535         1.34135
H           0.41978         2.15201         0.18728
H          -0.40287         1.41014         1.54746
H          -1.03929         1.13596        -1.38175
H          -2.15601         1.26229        -0.02728
H          -1.05834        -1.09350        -1.33606
H          -3.40065        -0.87164        -0.55451
H          -2.89611        -0.93081         1.09913
H          -1.86037        -3.28634         0.57788
H          -2.62053        -3.14977        -0.99717
H          -4.67169        -2.56641         1.01496
H           0.41851        -2.06386         0.16191
H          -0.95763        -2.49195         2.12225
H          -0.16896         0.14558         4.38079
H          -1.00985        -1.46185         4.54284

