%chk=CC1CCCCCCCqCrC1O.chk
%NProcShared=20
# opt freq b3lyp/6-31g(2df,p)

Title Card Required 

0  1
C           1.13196         0.02173        -0.54708
C           2.59688         0.07856        -0.12815
C           3.07276         1.53894         0.06040
C           2.66321         2.34735         1.30860
C           1.18127         2.37966         1.67448
C           0.76246         1.68939         2.98630
C           1.09969         0.23252         3.34360
C           0.66222        -0.86587         2.37956
C           1.80778        -1.67690         1.71020
C           2.36379        -2.63487         2.77317
C           2.97222        -0.92308         0.99853
O           3.90456        -0.36751         1.92277
H           0.90060         0.67544        -1.38941
H           0.51422         0.38522         0.25160
H           0.78769        -0.99069        -0.76856
H           3.13582        -0.28059        -1.02185
H           2.74486         2.10833        -0.82107
H           4.17135         1.55060         0.00329
H           2.96758         3.38255         1.09406
H           3.26849         2.10376         2.18351
H           0.53534         2.11897         0.83889
H           0.92206         3.43977         1.81128
H          -0.32615         1.79816         3.06847
H           1.18212         2.29693         3.79872
H           0.57678         0.02502         4.28857
H           2.14301         0.13697         3.63646
H          -0.09536        -0.50099         1.68712
H           0.05956        -1.59256         2.94578
H           1.34272        -2.31462         0.94385
H           2.77910        -2.08686         3.62403
H           3.14415        -3.28006         2.36141
H           1.56188        -3.27894         3.15074
H           3.57561        -1.70197         0.51228
H           3.45576         0.31446         2.41293

