%chk=CC1CCCCCCCCCCCN1C.chk
%NProcShared=20
# opt freq b3lyp/6-31g(2df,p)

Title Card Required 

0  1
C           0.86278        -0.01775         0.03018
C           2.39216         0.07621        -0.10404
C           2.94581        -1.26946        -0.64416
C           3.59728        -2.13962         0.44601
C           5.10592        -1.86727         0.54777
C           5.52773        -1.34976         1.92512
C           6.73946        -0.41254         1.82099
C           6.61570         0.80660         2.74768
C           7.05326         2.11365         2.06275
C           5.86771         3.02166         1.70548
C           4.95025         2.36874         0.67735
C           3.82313         3.28499         0.20201
C           2.55991         2.52796        -0.24371
N           2.84890         1.23949        -0.89751
C           2.41071         1.22832        -2.29181
H           0.58672        -0.87793         0.64759
H           0.38058        -0.14344        -0.94525
H           0.43533         0.87023         0.50366
H           2.78661         0.20750         0.91434
H           3.67814        -1.10990        -1.44549
H           2.13216        -1.84087        -1.10787
H           3.45814        -3.19246         0.17620
H           3.08578        -2.00465         1.40767
H           5.40409        -1.15363        -0.22832
H           5.65755        -2.79059         0.32952
H           5.77303        -2.19987         2.57434
H           4.68521        -0.83361         2.39540
H           6.87674        -0.08276         0.78572
H           7.65021        -0.96889         2.07688
H           7.24555         0.63468         3.62791
H           5.59575         0.91661         3.13331
H           7.64215         1.91398         1.15958
H           7.71049         2.66424         2.74410
H           6.24351         3.97743         1.32089
H           5.29557         3.24532         2.61413
H           4.52808         1.47035         1.13484
H           5.53354         2.04710        -0.19263
H           4.19375         3.90423        -0.62683
H           3.53499         3.97806         1.00180
H           1.96819         3.18756        -0.88772
H           1.94439         2.38921         0.65694
H           2.85354         2.06772        -2.83716
H           1.32453         1.29448        -2.38819
H           2.74807         0.32419        -2.80921

