%chk=CC1qCrOCCCCCqCdOrC1O.chk
%NProcShared=20
# opt freq b3lyp/6-31g(2df,p)

Title Card Required 

0  1
C           1.00150        -0.05719        -0.06555
C           2.53824        -0.01203         0.14920
C           2.55649        -0.00495         1.69067
O           3.09094        -1.22711        -0.39207
C           4.49136        -1.51120        -0.28602
C           5.06362        -1.37766         1.11880
C           5.76106        -0.00910         1.39797
C           5.09384         1.37758         1.12818
C           4.62215         1.57074        -0.31844
C           4.96919         2.96863        -0.78393
O           4.92094         3.32071        -1.97026
C           3.12141         1.27105        -0.55166
O           2.35257         2.42734        -0.18297
H           0.58198        -0.95677         0.40577
H           0.69756        -0.06438        -1.11232
H           0.52564         0.80190         0.42919
H           2.11494        -0.92022         2.09573
H           2.07392         0.87769         2.11238
H           3.52790        -0.00307         2.14216
H           5.07556        -0.95692        -1.02256
H           4.61702        -2.55416        -0.60642
H           5.81122        -2.16293         1.29331
H           4.29879        -1.66007         1.85007
H           6.67804        -0.01481         0.79745
H           6.08371        -0.01516         2.44686
H           5.83499         2.13717         1.40712
H           4.28858         1.64872         1.81942
H           5.24022         0.94693        -0.96608
H           5.29448         3.68108        -0.01226
H           2.98324         1.15847        -1.63940
H           2.38311         2.53862         0.77896

