%chk=CCC1CCCCCCqCrCqOCrO1.chk
%NProcShared=20
# opt freq b3lyp/6-31g(2df,p)

Title Card Required 

0  1
C           0.71633        -0.05598        -0.72829
C           2.23108         0.12158        -0.60537
C           2.94351         1.13720         0.37122
C           2.16160         2.27534         1.10010
C           1.63919         1.99319         2.53534
C           0.74225         0.77132         2.54115
C           1.04222        -0.39051         3.48622
C           2.46689        -0.97863         3.36425
C           2.80566        -1.51398         1.95261
C           2.90041        -3.03512         1.83672
C           4.06884        -0.82680         1.36827
O           5.17815        -1.17013         2.20955
C           6.41245        -0.69581         1.69044
O           3.89223         0.58749         1.30894
H           0.53697        -0.94985        -1.33790
H           0.24244         0.80165        -1.20135
H           0.15689        -0.30391         0.17201
H           2.59650         0.34767        -1.61382
H           2.61047        -0.89037        -0.47857
H           3.58997         1.70116        -0.31852
H           1.35189         2.64521         0.46305
H           2.85511         3.12489         1.22296
H           1.05889         2.86299         2.87074
H           2.46794         1.89904         3.24177
H           0.87634         0.35677         1.58862
H          -0.31996         1.05878         2.57195
H           0.32968        -1.19151         3.23586
H           0.84274        -0.09135         4.51363
H           2.57617        -1.78321         4.09987
H           3.17493        -0.19651         3.65674
H           1.93868        -1.29894         1.33714
H           3.71555        -3.45530         2.42866
H           3.06082        -3.31519         0.78627
H           1.95759        -3.49998         2.14363
H           4.31870        -1.20822         0.37095
H           7.22052        -1.12065         2.29247
H           6.45997         0.39365         1.76453
H           6.55869        -1.01102         0.65168

