%chk=CCC1CCC12CdCCqCOrC2.chk
%NProcShared=20
# opt freq b3lyp/6-31g(2df,p)

Title Card Required 

0  1
C           1.00116        -0.18226         0.04002
C           2.51502        -0.23655         0.10788
C           3.09835        -0.49610        -1.27732
C           4.63471        -0.39325        -1.13619
C           4.59573        -0.32657        -2.62312
C           3.26167         0.68714        -2.49172
C           2.83574         1.93184        -1.71358
C           2.92532         3.07324        -2.35802
C           3.43686         2.87392        -3.71924
C           2.42602         3.14466        -4.80913
O           3.00746         2.83117        -6.07072
C           3.87432         1.41192        -3.71416
H           0.60036         0.03500         1.03211
H           0.60629        -1.13675        -0.31463
H           0.62680         0.58538        -0.64615
H           2.83512        -1.02581         0.79242
H           2.92020         0.68841         0.54047
H           2.73025        -1.45722        -1.67235
H           5.16519        -1.23917        -0.70368
H           5.04734         0.54087        -0.73274
H           4.39889        -1.30812        -3.10788
H           5.57211        -0.05659        -3.05094
H           2.23473         1.96282        -0.80704
H           2.58184         4.02710        -1.96065
H           4.32351         3.50296        -3.85946
H           2.14486         4.20054        -4.81081
H           1.52174         2.53990        -4.67846
H           3.90920         3.19826        -6.06916
H           4.95555         1.56591        -3.58637
H           3.70425         0.87141        -4.64948

