%chk=CCC1CCC2CCC2qCrCCCqCrC1.chk
%NProcShared=20
# opt freq b3lyp/6-31g(2df,p)

Title Card Required 

0  1
C           1.11143         0.03278        -0.14823
C           2.64362         0.01473        -0.12718
C           3.12147        -0.94920         0.96980
C           3.44471        -2.38862         0.55789
C           3.17769        -3.33417         1.75975
C           4.35904        -3.55517         2.77454
C           3.93972        -4.82478         3.59531
C           3.51382        -3.88616         4.73692
C           4.68370        -2.91350         4.35462
C           6.03016        -3.27145         5.05494
C           4.33510        -1.54835         4.98605
C           4.87148        -0.35150         4.20945
C           3.87357         0.16796         3.16322
C           2.42086        -0.08740         3.60331
C           4.28666        -0.38559         1.78312
H           0.73437         0.70465        -0.92462
H           0.71650         0.38961         0.81074
H           0.70924        -0.96943        -0.31939
H           2.97223         1.03861         0.09060
H           3.03613        -0.26010        -1.10831
H           2.24830        -1.07514         1.58726
H           4.45840        -2.50076         0.16940
H           2.76225        -2.66516        -0.26174
H           2.92151        -4.30098         1.29825
H           2.27013        -3.03385         2.28943
H           5.25871        -3.76753         2.18440
H           4.77326        -5.49225         3.84380
H           3.13218        -5.44683         3.20271
H           3.50583        -4.30172         5.73882
H           2.51687        -3.45216         4.55200
H           6.44805        -4.23980         4.80761
H           5.88985        -3.25231         6.15079
H           6.78647        -2.49683         4.84936
H           4.79189        -1.47055         5.98701
H           3.28482        -1.48574         5.25152
H           5.85026        -0.57284         3.76928
H           5.06184         0.46281         4.92110
H           3.99380         1.25791         3.10917
H           2.18103        -1.15983         3.59347
H           1.69692         0.40992         2.95658
H           2.24084         0.27081         4.62099
H           5.05421        -1.15798         1.90265
H           4.81598         0.39793         1.22713

