%chk=CCC1qCrCqCOFrCCN1C.chk
%NProcShared=20
# opt freq b3lyp/6-31g(2df,p)

Title Card Required 

0  1
C           0.84701         0.09835         0.06127
C           2.36232        -0.02919        -0.04725
C           2.90617        -0.85956        -1.24772
C           2.57945        -0.10189        -2.56166
C           4.45672        -1.06982        -1.18547
C           5.06837        -1.24316         0.21027
O           5.12393         0.01102         0.87907
F           5.36448        -0.16584         2.25778
C           4.64169        -2.35421        -1.99039
C           3.42945        -3.18964        -1.62849
N           2.37864        -2.25109        -1.21081
C           1.14559        -2.49806        -1.95395
H           0.58454         0.76986         0.88450
H           0.39112        -0.86993         0.28804
H           0.39877         0.50126        -0.84964
H           2.69258        -0.46126         0.90323
H           2.78529         0.98333        -0.09729
H           3.05186         0.88786        -2.56088
H           1.50601         0.05776        -2.69765
H           2.94124        -0.63362        -3.44789
H           4.97969        -0.23977        -1.68115
H           6.10036        -1.60137         0.13547
H           4.50882        -1.95964         0.82297
H           5.58046        -2.87658        -1.77458
H           4.63186        -2.13304        -3.06327
H           3.66103        -3.84886        -0.78474
H           3.14354        -3.83277        -2.47101
H           0.78391        -3.51306        -1.75353
H           1.28490        -2.39842        -3.03606
H           0.33780        -1.82686        -1.65856

