%chk=CCCCN1CC1CC1CN1.chk
%NProcShared=20
# opt freq b3lyp/6-31g(2df,p)

Title Card Required 

0  1
C           1.00854        -0.06023        -0.08209
C           2.52911        -0.07791        -0.06661
C           3.05129        -0.88562         1.12045
C           4.57948        -0.94991         1.13487
N           5.02194        -1.69165         2.31636
C           5.07530        -3.13790         2.15438
C           6.33593        -2.29791         2.15426
C           7.27580        -2.28154         3.32592
C           8.57197        -1.54358         3.12403
C           9.02620        -1.02453         1.77307
N           8.65061        -0.10616         2.84485
H           0.64149         0.51345        -0.93828
H           0.61354         0.39770         0.83054
H           0.60744        -1.07640        -0.15591
H           2.90375         0.95096        -0.01428
H           2.89481        -0.51082        -1.00488
H           2.63912        -1.90143         1.07412
H           2.69012        -0.43372         2.05321
H           4.98418         0.06738         1.20435
H           4.94790        -1.37493         0.19198
H           4.76376        -3.56905         1.20838
H           4.83718        -3.73198         3.02712
H           6.83739        -2.32114         1.19547
H           7.53767        -3.32356         3.55062
H           6.77922        -1.89625         4.22732
H           9.32162        -1.87627         3.83190
H           8.37682        -0.98271         0.91078
H          10.07580        -1.13521         1.53608
H           7.72714         0.29521         2.68471

