%chk=CCCCqCCCrCCCCqCrOCC.chk
%NProcShared=20
# opt freq b3lyp/6-31g(2df,p)

Title Card Required 

0  1
C           0.75133        -0.04826        -0.21003
C           2.25949        -0.00386        -0.18284
C           2.94991        -1.33692         0.08096
C           4.50093        -1.27149         0.14416
C           5.06240        -0.42101         1.32859
C           4.76955         1.07541         1.29609
C           5.34951         1.85045         2.45730
C           5.02409        -2.74017         0.22450
C           6.54507        -2.80810         0.20022
C           7.12319        -4.21079         0.35392
C           8.66348        -4.15669         0.41337
C           9.15291        -3.29267         1.58473
O           9.14694        -5.50155         0.54231
C          10.57006        -5.58070         0.47189
C          11.01035        -7.02129         0.58828
H           0.37754         0.97964        -0.28987
H           0.37610        -0.45471         0.73378
H           0.37147        -0.63477        -1.04647
H           2.39685         0.64759         0.66516
H           2.67461         0.49027        -1.06393
H           2.66141        -2.02796        -0.72487
H           2.57492        -1.77117         1.01365
H           4.87091        -0.84212        -0.79583
H           6.15690        -0.48006         1.33599
H           4.72031        -0.85676         2.27248
H           3.71914         1.26496         1.46048
H           5.05491         1.50693         0.33480
H           4.97946         1.43697         3.39990
H           4.99584         2.88551         2.39348
H           6.44083         1.84380         2.45464
H           4.63014        -3.32707        -0.61509
H           4.65471        -3.21097         1.14415
H           6.90479        -2.22756         1.04453
H           6.92897        -2.34146        -0.71409
H           6.79888        -4.85065        -0.47629
H           6.73520        -4.68358         1.26561
H           9.02960        -3.74230        -0.53482
H           8.81714        -3.71852         2.53612
H           8.81873        -2.25589         1.51735
H          10.24225        -3.23115         1.62211
H          11.01928        -5.04375         1.31005
H          10.92193        -5.14343        -0.46855
H          10.63448        -7.45975         1.51835
H          12.10299        -7.07725         0.59047
H          10.62112        -7.61893        -0.23976

