%chk=CCCCC1CCCCCCqCrOC1.chk
%NProcShared=20
# opt freq b3lyp/6-31g(2df,p)

Title Card Required 

0  1
C           0.77663        -0.03268        -0.01513
C           2.27278        -0.08988        -0.14740
C           2.66408        -0.32660        -1.61598
C           4.14839        -0.54602        -1.62028
C           4.96431        -0.49430        -2.89870
C           4.99694         0.89744        -3.58185
C           5.95744         1.97975        -3.05059
C           5.78970         2.41390        -1.59563
C           6.98857         2.12228        -0.66935
C           7.71029         0.75731        -0.72106
C           6.82511        -0.42369        -0.34255
C           7.13495        -1.07137         1.00594
O           6.75912        -1.44211        -1.34376
C           6.38729        -1.08067        -2.68536
H           0.48876         0.11924         1.02672
H           0.34147        -0.97273        -0.36891
H           0.38030         0.78877        -0.61778
H           2.67911        -0.87983         0.49860
H           2.71292         0.85418         0.21621
H           2.38412         0.53997        -2.21501
H           2.16418        -1.21683        -2.01925
H           4.35445        -1.47119        -1.07770
H           4.47342         0.28982        -1.01686
H           4.45197        -1.15583        -3.61581
H           3.98244         1.31454        -3.61779
H           5.27233         0.73618        -4.63361
H           5.78811         2.87021        -3.67376
H           6.99421         1.70251        -3.25792
H           4.84494         2.08187        -1.16512
H           5.65797         3.50585        -1.58901
H           6.66385         2.30669         0.36310
H           7.74596         2.88244        -0.89058
H           8.55186         0.80578        -0.02064
H           8.16874         0.62381        -1.70381
H           5.85032        -0.03498        -0.10377
H           8.10063        -1.57922         1.02026
H           6.36718        -1.82420         1.23525
H           7.09739        -0.32189         1.80427
H           6.42786        -2.01981        -3.25246
H           7.16997        -0.47348        -3.14701

