%chk=CCCCCNCCCCdC1CCCCN1.chk
%NProcShared=20
# opt freq b3lyp/6-31g(2df,p)

Title Card Required 

0  1
C           1.00521         0.10646         0.00513
C           2.52316         0.10084         0.01137
C           3.05394        -0.85061         1.07713
C           4.57931        -0.86154         1.09091
C           5.08766        -1.81818         2.16363
N           6.54691        -1.81972         2.16361
C           7.05238        -2.72746         3.18862
C           8.58016        -2.70656         3.18172
C           9.11319        -3.63675         4.26474
C          10.61321        -3.67145         4.34444
C          11.27563        -4.48077         5.19468
C          10.56032        -5.35470         6.20371
C          10.99269        -6.80476         6.02674
C          12.51209        -6.91142         6.15435
C          13.20286        -6.02686         5.11626
N          12.63393        -4.68790         5.10837
H           0.63113         0.79082        -0.76134
H           0.61388         0.42958         0.97515
H           0.61383        -0.89382        -0.20638
H           2.89156         1.11582         0.20032
H           2.89166        -0.20147        -0.97575
H           2.67988        -1.86448         0.88776
H           2.67913        -0.54820         2.06293
H           4.95336         0.15233         1.28171
H           4.95573        -1.16720         0.10644
H           4.71095        -2.82738         1.95818
H           4.70691        -1.50595         3.14372
H           6.89180        -0.87638         2.34073
H           6.69663        -3.74690         2.99311
H           6.68302        -2.42616         4.17682
H           8.94494        -1.68806         3.35936
H           8.95218        -3.02434         2.19925
H           8.74920        -4.65132         4.04935
H           8.70438        -3.32834         5.23407
H          11.17577        -3.11751         3.59827
H           9.47178        -5.29773         6.13080
H          10.82007        -5.00310         7.21119
H          10.67711        -7.16426         5.03840
H          10.49991        -7.43136         6.77624
H          12.82020        -7.95398         6.02360
H          12.81224        -6.60396         7.16367
H          13.04573        -6.45705         4.11948
H          14.28293        -5.99473         5.28853
H          13.24119        -3.89437         5.29622

