%chk=CCCCqCCCrOCCOCqCrCCO.chk
%NProcShared=20
# opt freq b3lyp/6-31g(2df,p)

Title Card Required 

0  1
C           0.85084         0.22431        -0.08097
C           2.35900         0.18307        -0.05965
C           3.07858         0.64443        -1.32521
C           4.62634         0.51660        -1.26361
C           5.14702        -0.93573        -1.15052
C           4.83259        -1.66871         0.14055
C           5.41667        -3.05774         0.19854
O           5.13080         1.09465        -2.48813
C           6.55820         1.18681        -2.52868
C           6.98922         1.83695        -3.82353
O           8.41753         1.92191        -3.85903
C           8.90218         2.49125        -5.08122
C           8.41378         3.93456        -5.20802
C          10.43568         2.42798        -5.06360
C          11.04449         3.00735        -6.33494
O          12.45729         2.93319        -6.29243
H           0.48336        -0.24452         0.84193
H           0.47667        -0.38108        -0.91359
H           0.46127         1.23729        -0.14654
H           2.49194        -0.87506         0.05503
H           2.76996         0.67699         0.82744
H           2.81452         1.69215        -1.52326
H           2.70913         0.08385        -2.19348
H           4.99546         1.12840        -0.43042
H           6.23803        -0.94162        -1.21371
H           4.80311        -1.50035        -2.02609
H           3.78675        -1.90228         0.21498
H           5.12130        -1.06216         1.00543
H           5.04376        -3.64374        -0.64871
H           5.06105        -3.53977         1.11516
H           6.50536        -3.04817         0.18924
H           7.02650         0.20134        -2.51539
H           6.92791         1.75992        -1.67080
H           6.53240         2.82782        -3.85373
H           6.62431         1.25824        -4.68046
H           8.53612         1.88251        -5.91767
H           8.73187         4.51515        -4.33517
H           7.32431         3.99335        -5.25347
H           8.76900         4.41728        -6.11795
H          10.77323         1.39023        -4.93276
H          10.83128         2.95095        -4.18201
H          10.77916         4.05818        -6.47348
H          10.69582         2.45163        -7.21347
H          12.75062         3.51192        -5.55411

