%chk=CCCCCCqCrCqCrqNrCCCC.chk
%NProcShared=20
# opt freq b3lyp/6-31g(2df,p)

Title Card Required 

0  1
C           0.84314        -0.01417         0.00506
C           2.35628        -0.02306         0.00463
C           2.88588        -0.22763         1.41387
C           4.40489        -0.21559         1.38946
C           4.93886        -0.37388         2.80104
C           6.47974        -0.34725         2.88444
C           7.02643         0.95447         2.26241
C           6.97761        -0.56694         4.35882
C           6.44909         0.53946         5.29749
N           6.47870        -1.86977         4.84589
C           8.52824        -0.61244         4.38709
C           9.11800        -0.81547         5.77992
C          10.63710        -0.80235         5.75898
C          11.14589        -0.98252         7.17753
H           0.46867         0.12689        -1.01160
H           0.46237         0.79860         0.63174
H           0.45256        -0.96000         0.39295
H           2.73029         0.92592        -0.39822
H           2.72542        -0.82196        -0.64858
H           2.52220        -1.17518         1.82932
H           2.52200         0.57397         2.07001
H           4.72659         0.73661         0.95919
H           4.78890        -1.02074         0.75286
H           4.55306        -1.32130         3.19392
H           4.51220         0.42396         3.41747
H           6.85820        -1.17733         2.26939
H           6.65569         1.83674         2.79260
H           6.74042         1.05589         1.21236
H           8.11768         0.98489         2.25748
H           5.35704         0.59090         5.30994
H           6.83017         1.52199         5.00056
H           6.74197         0.37957         6.33902
H           5.46660        -1.87045         4.89586
H           6.78265        -2.02286         5.81076
H           8.93939         0.32642         4.00269
H           8.88804        -1.40626         3.71698
H           8.77667        -1.76288         6.20833
H           8.78453        -0.01271         6.44460
H          10.99996         0.14816         5.35118
H          11.01325        -1.60586         5.11660
H          10.78384        -0.17326         7.82134
H          12.23721        -0.98053         7.19803
H          10.78918        -1.92981         7.59586

