%chk=CCCCCCCqCCCrCqCOCrCqCrCCCC.chk
%NProcShared=20
# opt freq b3lyp/6-31g(2df,p)

Title Card Required 

0  1
C           0.98565        -0.09855         0.08982
C           2.49584        -0.15600         0.11164
C           3.07127         0.82013        -0.88333
C           4.58963         0.69770        -0.88991
C           5.08266         1.75137        -1.83486
C           6.56961         1.91298        -1.88641
C           7.02996         3.05148        -2.82320
C           6.39556         4.40077        -2.36956
C           4.89035         4.66818        -2.45048
C           4.55333         6.11219        -2.13743
C           8.63157         3.10370        -2.89551
C           9.22256         1.69850        -3.29321
O           8.99086         0.69937        -2.30137
C           9.27766        -0.61171        -2.77217
C           9.21518         4.21096        -3.87907
C           8.83599         5.67114        -3.55130
C          10.76208         4.16255        -3.92374
C          11.34329         5.16031        -4.91675
C          12.85517         5.14443        -4.91621
C          13.33685         6.21147        -5.88115
H           0.58049        -0.82962         0.79176
H           0.60521        -0.32448        -0.91144
H           0.62948         0.89702         0.37470
H           2.83902        -1.16547        -0.13736
H           2.86657         0.08607         1.11401
H           2.76948         1.84485        -0.61145
H           2.67680         0.64258        -1.89184
H           4.92661        -0.29866        -1.19201
H           4.98180         0.90735         0.11211
H           4.69077         2.62068        -1.34175
H           4.65676         1.65655        -2.83681
H           6.91001         0.94157        -2.24273
H           6.97233         2.08231        -0.88237
H           6.67549         2.83084        -3.83785
H           6.69814         5.12027        -3.10227
H           6.81357         4.70823        -1.40806
H           4.30095         4.17749        -1.68685
H           4.51000         4.36928        -3.43032
H           4.92351         6.36722        -1.13905
H           3.46475         6.21973        -2.12759
H           4.97752         6.80170        -2.86956
H           8.98960         3.32531        -1.88064
H          10.30709         1.72105        -3.38045
H           8.80330         1.39356        -4.26027
H           8.87087        -1.32986        -2.05420
H          10.35917        -0.74944        -2.83834
H           8.80984        -0.80167        -3.74440
H           8.83810         3.97954        -4.88462
H           8.92499         5.87330        -2.48015
H           7.87051         5.95845        -3.95672
H           9.42162         6.42827        -4.06108
H          11.12452         3.18491        -4.24624
H          11.15852         4.34225        -2.91639
H          11.07865         6.18658        -4.66886
H          10.94096         4.95209        -5.91559
H          13.22768         4.15723        -5.20263
H          13.21995         5.36725        -3.90632
H          12.96707         6.00802        -6.89158
H          14.42633         6.24498        -5.89939
H          12.96413         7.19916        -5.58325

