%chk=CCCCOCCOCqCrCCqCrCCCO.chk
%NProcShared=20
# opt freq b3lyp/6-31g(2df,p)

Title Card Required 

0  1
C           0.88437        -0.05165        -0.05932
C           2.39832        -0.05058        -0.05629
C           2.94887         0.38172         1.29425
C           4.46380         0.37614         1.23953
O           4.96545         0.82189         2.48399
C           6.39211         0.83830         2.45920
C           6.83221         1.28008         3.82573
O           8.25190         1.23382         3.96133
C           8.65834         1.57132         5.29941
C           8.03155         0.56918         6.27150
C          10.20793         1.58594         5.34577
C          10.82408         2.02205         6.70342
C          10.44793         1.09776         7.86710
C          12.36270         2.09059         6.61719
C          12.97037         2.56111         7.94310
C          14.47997         2.56196         7.93896
O          14.94171         2.94611         9.22588
H           0.51253        -0.36242        -1.03961
H           0.49553         0.94832         0.15599
H           0.49547        -0.74433         0.69316
H           2.76491         0.62704        -0.83667
H           2.76673        -1.05393        -0.30110
H           2.59979        -0.28606         2.09252
H           2.58967         1.38362         1.56179
H           4.81772         1.05386         0.45621
H           4.83221        -0.63636         1.04004
H           6.76401         1.52036         1.69103
H           6.77468        -0.17054         2.26056
H           6.34127         0.56616         4.48658
H           6.45021         2.27631         4.07625
H           8.30596         2.58892         5.51051
H           8.51868        -0.40631         6.18418
H           6.96711         0.39837         6.14467
H           8.03120         0.93137         7.28722
H          10.56558         2.26928         4.55804
H          10.59729         0.60336         5.04491
H          10.45221         3.03254         6.92004
H          10.58718         0.04716         7.59568
H           9.44586         1.28850         8.22417
H          10.99290         1.27696         8.78804
H          12.66498         2.77613         5.81554
H          12.75885         1.10064         6.35724
H          12.70318         1.90514         8.77388
H          12.57148         3.54809         8.20995
H          14.87792         3.24978         7.19199
H          14.85315         1.55109         7.73907
H          14.51475         3.80097         9.44717

