%chk=CCCCNCqCrCqCCrCOC.chk
%NProcShared=20
# opt freq b3lyp/6-31g(2df,p)

Title Card Required 

0  1
C           1.01225         0.04241         0.03635
C           2.52520         0.02097         0.03661
C           3.09459         1.39558        -0.27671
C           4.61526         1.30348        -0.31604
N           5.13299         2.61313        -0.67568
C           6.59154         2.72913        -0.62023
C           7.17430         1.78549        -1.68659
C           7.05292         4.21306        -0.83482
C           6.54598         5.23077         0.23439
C           5.04680         5.50833         0.30103
C           8.60267         4.25765        -0.85364
O           9.09694         5.57120        -1.11331
C          10.52137         5.57176        -1.13860
H           0.62708        -0.95762         0.25172
H           0.62964         0.35765        -0.93946
H           0.63328         0.73246         0.79624
H           2.87946        -0.70061        -0.70896
H           2.89175        -0.31385         1.01392
H           2.77120         2.12159         0.48181
H           2.71368         1.75142        -1.24356
H           4.89459         0.54614        -1.05375
H           4.99263         0.99824         0.66718
H           4.73196         3.24659         0.00532
H           6.94299         2.41164         0.37078
H           6.83848         2.07836        -2.68771
H           6.88001         0.74587        -1.51948
H           8.26478         1.76120        -1.67543
H           6.69727         4.56509        -1.81376
H           7.01298         6.20235         0.02944
H           6.89667         4.92345         1.22652
H           4.61455         5.61495        -0.69869
H           4.85532         6.42831         0.86060
H           4.50099         4.74629         0.86086
H           8.99878         3.61484        -1.64297
H           8.99232         3.91009         0.11148
H          10.86661         6.58415        -1.35900
H          10.89355         4.89715        -1.91726
H          10.91603         5.26713        -0.16416

