%chk=CCCqCrNNCCqOCrNqOrCN.chk
%NProcShared=20
# opt freq b3lyp/6-31g(2df,p)

Title Card Required 

0  1
C           1.03671        -0.11418         0.06524
C           2.55691        -0.07369         0.05956
C           3.10054         1.11830        -0.73368
C           2.60867         2.44648        -0.11430
N           4.58121         0.99784        -0.75983
N           5.08316         2.06249        -1.58159
C           6.53923         2.21749        -1.48450
C           7.02945         3.49885        -2.26181
O           6.59683         4.72180        -1.63127
C           5.22257         5.05428        -1.75260
N           8.51484         3.48738        -2.29979
O           8.86732         2.29057        -3.06892
C           9.00560         4.61831        -3.08140
N          10.45877         4.59239        -3.06688
H           0.68480        -1.00131         0.59542
H           0.64942        -0.13807        -0.95842
H           0.60875         0.75454         0.57339
H           2.92842        -1.00834        -0.37894
H           2.92532        -0.03464         1.09264
H           2.72558         1.05905        -1.76557
H           2.97407         2.56866         0.91076
H           1.51744         2.50579        -0.09971
H           2.90982         3.32160        -0.69469
H           4.82566         0.08558        -1.17110
H           4.73935         2.91416        -1.14329
H           6.98951         1.31049        -1.90552
H           6.84420         2.30407        -0.43365
H           6.64598         3.46856        -3.29265
H           5.09229         6.13114        -1.63051
H           4.67224         4.63447        -0.91035
H           4.79208         4.74465        -2.71096
H           9.10727         1.66893        -2.35630
H           8.68585         5.56979        -2.64147
H           8.64655         4.58544        -4.11605
H          10.74836         4.66213        -2.09479
H          10.79924         5.42931        -3.53299

