%chk=CCCqCrCCCCCOCqCCrCOO.chk
%NProcShared=20
# opt freq b3lyp/6-31g(2df,p)

Title Card Required 

0  1
C           0.93094        -0.01901         0.16741
C           2.44975         0.03853         0.10598
C           2.96008         0.48676        -1.27172
C           2.43321         1.88237        -1.63544
C           4.49711         0.45675        -1.29011
C           5.01781         0.84976        -2.66511
C           6.52066         0.90742        -2.71381
C           6.94771         1.41326        -4.09593
C           8.44961         1.40677        -4.10731
O           9.03670         1.68598        -5.35869
C          10.47458         1.59697        -5.29590
C          11.02224         0.17649        -4.95851
C          10.81957        -0.36481        -3.53752
C          11.00094         2.04211        -6.67346
O          12.42774         2.08647        -6.66109
O          12.82983         2.43279        -8.01502
H           0.60131        -0.36951         1.14821
H           0.54002        -0.69824        -0.59681
H           0.48378         0.96666         0.01195
H           2.84843        -0.95689         0.33934
H           2.82106         0.71846         0.88231
H           2.59839        -0.22676        -2.02451
H           2.79312         2.62866        -0.91952
H           1.34289         1.91366        -1.65830
H           2.74110         2.19348        -2.63662
H           4.85827        -0.54893        -1.03519
H           4.89845         1.13691        -0.52777
H           4.66705         1.84600        -2.94080
H           4.64616         0.14455        -3.41775
H           6.93786        -0.08842        -2.51096
H           6.90437         1.57738        -1.93321
H           6.54735         2.40754        -4.31562
H           6.57280         0.73711        -4.87501
H           8.65022         0.37387        -3.89695
H           8.86470         2.05099        -3.32414
H          10.84360         2.31181        -4.54776
H          12.10731         0.18991        -5.10562
H          10.60251        -0.54637        -5.66728
H          10.96774         0.41482        -2.78422
H          11.51823        -1.18184        -3.34254
H           9.84562        -0.83558        -3.37877
H          10.61410         3.03760        -6.92603
H          10.65514         1.35003        -7.45301
H          13.78208         2.38012        -7.86012

