%chk=CCCqCCrCCOCqNrCCCCO.chk
%NProcShared=20
# opt freq b3lyp/6-31g(2df,p)

Title Card Required 

0  1
C           1.03912         0.24433         0.00298
C           2.53592        -0.01988        -0.01408
C           2.99225        -1.30450         0.70797
C           2.47771        -2.61595         0.05614
C           0.98171        -2.86643         0.09318
C           4.54947        -1.29743         0.76156
C           5.08410        -2.48665         1.54355
O           6.50275        -2.57486         1.49178
C           6.96852        -3.71071         2.21616
N           6.55343        -4.95122         1.57670
C           8.49585        -3.67532         2.23908
C           9.05411        -4.87079         3.00931
C          10.57126        -4.88210         3.01282
C          11.08174        -6.10267         3.76304
O          12.49872        -6.10547         3.76853
H           0.82973         1.27309        -0.30181
H           0.61376         0.08217         0.99806
H           0.51284        -0.37777        -0.71934
H           3.01912         0.83951         0.46854
H           2.88831        -0.03441        -1.05211
H           2.63028        -1.26722         1.74487
H           2.88717        -3.47705         0.58962
H           2.84533        -2.68528        -0.97404
H           0.56789        -2.64653         1.08150
H           0.77872        -3.91793        -0.13496
H           0.45129        -2.30026        -0.66842
H           4.91938        -0.37337         1.22531
H           4.96736        -1.30787        -0.25363
H           4.70641        -3.38919         1.07492
H           4.74209        -2.44691         2.58347
H           6.59478        -3.66571         3.24722
H           6.79435        -4.87724         0.59038
H           5.54564        -5.05000         1.62489
H           8.83430        -2.73645         2.69524
H           8.88617        -3.66302         1.21220
H           8.70448        -5.80884         2.56069
H           8.67457        -4.85003         4.03840
H          10.96146        -3.96717         3.47319
H          10.95205        -4.89453         1.98382
H          10.72993        -7.02981         3.29744
H          10.73387        -6.09150         4.80183
H          12.78844        -6.12450         2.83576

