%chk=CCdCCCqCCCrCqCrCCOC.chk
%NProcShared=20
# opt freq b3lyp/6-31g(2df,p)

Title Card Required 

0  1
C           0.91592         0.05246        -0.09425
C           2.40527         0.09050        -0.12221
C           3.11607        -0.43927         0.88645
C           4.59075        -0.67654         0.84707
C           5.11626        -1.68243         1.91439
C           4.60728        -3.13658         1.67467
C           3.09053        -3.28145         1.67156
C           2.61031        -4.69802         1.48206
C           6.67943        -1.65493         1.95651
C           7.21139        -0.22654         2.17633
C           7.23800        -2.59004         3.05253
C           8.75663        -2.61746         3.05808
O           9.21559        -3.50682         4.06945
C          10.63739        -3.49873         4.09609
H           0.50718         0.69772        -0.87456
H           0.52605         0.38289         0.87328
H           0.56960        -0.97091        -0.28198
H           2.90591         0.50166        -0.99178
H           2.57232        -0.80477         1.75159
H           5.02278         0.31228         1.00038
H           4.90479        -1.02848        -0.14496
H           4.75252        -1.35559         2.89901
H           4.97301        -3.79662         2.46745
H           5.01916        -3.51486         0.73116
H           2.66917        -2.74548         0.82326
H           2.68173        -2.87427         2.60426
H           2.95267        -5.07758         0.51528
H           1.51527        -4.69638         1.47814
H           2.96285        -5.35331         2.27981
H           7.05270        -2.00799         0.98492
H           6.86047         0.16897         3.13513
H           6.91330         0.46038         1.38338
H           8.30212        -0.18408         2.16146
H           6.90836        -3.62374         2.90849
H           6.85967        -2.29157         4.03870
H           9.16279        -1.62710         3.27325
H           9.11892        -2.95658         2.08053
H          10.97570        -4.15980         4.89498
H          11.00774        -2.48656         4.29153
H          11.02815        -3.85881         3.13944

