%chk=CCdCCCCCCOCNNdO.chk
%NProcShared=20
# opt freq b3lyp/6-31g(2df,p)

Title Card Required 

0  1
C           0.93615         0.01767        -0.07602
C           2.42695         0.02471        -0.06401
C           3.13509         0.60142         0.91969
C           4.63294         0.61375         0.94072
C           5.15957         1.33930         2.17830
C           6.68397         1.34913         2.19505
C           7.21544         2.07301         3.42978
C           8.73673         2.07451         3.43233
O           9.22077         2.75455         4.59228
C          10.65058         2.75614         4.59499
N          11.15732         3.43258         5.74881
N          12.42802         3.53379         5.92143
O          12.65801         4.14651         6.96654
H           0.57259        -0.50420        -0.96617
H           0.54445         1.03924        -0.09931
H           0.54445        -0.50161         0.80404
H           2.93978        -0.45997        -0.89073
H           2.60774         1.08273         1.74065
H           5.00718         1.11347         0.03890
H           5.00718        -0.41726         0.93631
H           4.78550         0.84790         3.08546
H           4.78550         2.37091         2.19257
H           7.05829         1.83989         1.28795
H           7.05829         0.31788         2.18025
H           6.84409         1.59210         4.34297
H           6.84409         3.10475         3.45615
H           9.10685         2.58142         2.53341
H           9.10685         1.04251         3.43562
H          10.99510         3.25640         3.68176
H          10.99510         1.71491         4.58549
H          10.52105         3.82895         6.42489

