%chk=CCdC1CdCCqCCrdCqCSrCdC1.chk
%NProcShared=20
# opt freq b3lyp/6-31g(2df,p)

Title Card Required 

0  1
C           0.97263         0.03910        -0.06949
C           2.46504        -0.05195        -0.06970
C           3.16400        -1.20813        -0.07774
C           4.60405        -1.09454        -0.06956
C           5.50197        -2.07286        -0.06077
C           5.38340        -3.52805        -0.07340
C           6.71734        -4.23000        -0.09225
C           8.03842        -3.49463        -0.07920
C           4.25360        -4.28371        -0.10917
C           4.11650        -5.82869        -0.16179
S           5.49327        -6.99791        -0.23932
C           2.89561        -3.72284        -0.10388
C           2.44296        -2.46741        -0.09165
H           0.64528         1.08005        -0.06024
H           0.56593        -0.45032         0.82186
H           0.56593        -0.43500        -0.96896
H           2.98514         0.90613        -0.05938
H           5.01107        -0.07999        -0.07309
H           6.51783        -1.68475        -0.05964
H           6.74381        -4.75633        -1.04709
H           6.74512        -4.90625         0.76869
H           8.12664        -2.86765        -0.97114
H           8.84389        -4.23354        -0.10843
H           8.14805        -2.89290         0.82547
H           3.50722        -6.08185        -1.03666
H           3.56620        -6.13940         0.73359
H           6.12369        -6.49270        -1.31016
H           2.09418        -4.46710        -0.11000
H           1.35811        -2.38872        -0.09094

