%chk=CCOCqCOOrCqCrCCqCrdO.chk
%NProcShared=20
# opt freq b3lyp/6-31g(2df,p)

Title Card Required 

0  1
C           0.89692         0.14249         0.05873
C           2.40459         0.07718         0.03066
O           2.97523         1.37235        -0.13363
C           4.42519         1.35535        -0.11043
C           4.99467         0.55702        -1.30289
O           4.79364        -0.84633        -1.10204
O           4.98695        -1.46274        -2.40262
C           4.88236         2.83982        -0.12241
C           4.31058         3.55043         1.12292
C           6.41060         2.97896        -0.16842
C           6.97166         4.37928        -0.32580
C           6.06858         5.56850        -0.51648
O           8.20005         4.54101        -0.30591
H           0.49489        -0.87348         0.12897
H           0.52512         0.59980        -0.86359
H           0.53407         0.73550         0.90054
H           2.64051        -0.53671        -0.83674
H           2.79111        -0.38791         0.94371
H           4.74147         0.89412         0.83394
H           6.07456         0.66161        -1.38634
H           4.51855         0.88926        -2.23366
H           4.54259        -2.30249        -2.18607
H           4.45514         3.30568        -1.02106
H           4.63642         3.04853         2.03785
H           3.21763         3.57163         1.09352
H           4.62676         4.58992         1.22588
H           6.81948         2.44088        -1.02986
H           6.84565         2.52934         0.73305
H           5.02506         5.30198        -0.67741
H           6.37244         6.12348        -1.40349
H           6.13400         6.19432         0.37788

