%chk=CCONqOrCqCrCNCCCCCCN.chk
%NProcShared=20
# opt freq b3lyp/6-31g(2df,p)

Title Card Required 

0  1
C           0.83303        -0.00723         0.05470
C           2.34317        -0.03386         0.03334
O           2.83527         1.22289         0.49977
N           4.29126         1.15175         0.55326
O           4.76504         1.26657        -0.82001
C           4.73076         2.41536         1.20805
C           4.18137         2.51940         2.64153
C           6.28184         2.47189         1.22502
N           6.80302         3.71398         1.80878
C           8.25870         3.69895         1.80094
C           8.75438         4.99143         2.43163
C          10.27536         5.00805         2.44237
C          10.79175         6.29607         3.06576
C          12.31584         6.30855         3.07142
C          12.83723         7.59816         3.69125
N          14.29319         7.59739         3.68226
H           0.43124        -0.92678        -0.37937
H           0.45865         0.84845        -0.51646
H           0.46371         0.09751         1.07876
H           2.67082        -0.18770        -1.00108
H           2.72631        -0.85117         0.65500
H           4.79498         0.32526        -1.07890
H           4.35341         3.27201         0.63253
H           4.55142         1.70240         3.27012
H           3.08776         2.50317         2.66007
H           4.47610         3.46310         3.11440
H           6.66347         2.39491         0.19942
H           6.66895         1.60970         1.78412
H           6.48108         3.80417         2.77066
H           8.63498         3.62011         0.77428
H           8.63541         2.84145         2.37177
H           8.37581         5.08229         3.45815
H           8.37537         5.85469         1.86951
H          10.65232         4.91298         1.41669
H          10.64958         4.14487         3.00657
H          10.41345         6.38821         4.09126
H          10.41315         7.15714         2.50153
H          12.68628         6.20808         2.04316
H          12.68579         5.44157         3.63377
H          12.47589         7.69526         4.72101
H          12.47137         8.46166         3.12554
H          14.63703         6.81405         4.23617
H          14.63240         8.44320         4.13695

