%chk=CCtCCCC1CCC1CCqCrqCrN.chk
%NProcShared=20
# opt freq b3lyp/6-31g(2df,p)

Title Card Required 

0  1
C           0.96950         0.02983        -0.09044
C           2.48950         0.02983        -0.09044
C           3.79336         0.02983        -0.09044
C           5.31336         0.02983        -0.09044
C           5.84007         0.02003         1.31560
C           7.34866         0.23354         1.31056
C           8.11626        -0.72749         0.35864
C           9.11893         0.39897         0.09079
C           8.03515         1.42075         0.53343
C           8.55245         2.63037         1.32485
C           7.44890         3.66621         1.67704
C           6.75928         4.20788         0.41487
C           6.39311         3.08220         2.60365
N           8.03243         4.78423         2.42364
H           0.59639         0.98036        -0.48177
H           0.59644        -0.10647         0.92843
H           0.59635        -0.78434        -0.71790
H           5.65389         0.85836        -0.71414
H           5.58588        -0.90531        -0.59179
H           5.59188        -0.92034         1.82036
H           5.28048         0.74444         1.90261
H           7.71812         0.16722         2.34382
H           7.60554        -1.01869        -0.56604
H           8.49381        -1.63972         0.82376
H           9.42035         0.48337        -0.95920
H          10.01052         0.34668         0.71935
H           7.49801         1.74851        -0.36323
H           9.32571         3.13036         0.72459
H           9.05211         2.28130         2.23818
H           6.26361         3.41188        -0.15208
H           7.47448         4.69540        -0.25559
H           5.97239         4.92826         0.66521
H           5.80301         2.40588         2.01362
H           5.66610         3.81690         2.96167
H           6.82111         2.55479         3.46313
H           8.77431         5.22942         1.87507
H           8.45991         4.44535         3.27748

