%chk=CCtCCCCCCqCrOCCCCqCrC.chk
%NProcShared=20
# opt freq b3lyp/6-31g(2df,p)

Title Card Required 

0  1
C           1.04241         0.06796         0.05986
C           2.56241         0.06796         0.05986
C           3.86626         0.06796         0.05986
C           5.38626         0.06796         0.05986
C           5.86328        -1.00421         1.02631
C           7.37463        -1.00184         1.02830
C           7.95485        -2.00232         2.01596
C           9.48550        -1.92688         2.01845
C           9.97389        -0.52923         2.41475
O           9.95776        -2.90686         2.94864
C          11.37678        -3.00232         2.93152
C          11.82006        -4.07076         3.90497
C          13.34671        -4.10987         3.93392
C          13.89002        -5.16291         4.90381
C          13.41692        -6.56580         4.52445
C          15.41799        -5.11018         4.91094
H           0.66930        -0.94558        -0.11152
H           0.66923         0.72315        -0.73217
H           0.66928         0.42627         1.02331
H           5.74194         1.06146         0.35458
H           5.73992        -0.13472        -0.95730
H           5.48000        -1.98975         0.73556
H           5.48393        -0.79560         2.03454
H           7.68667         0.01405         1.28684
H           7.75378        -1.21307         0.02225
H           7.63293        -3.01982         1.75440
H           7.56696        -1.82106         3.02519
H           9.84917        -2.18792         1.01787
H           9.65265        -0.29138         3.43337
H           9.62561         0.24775         1.73315
H          11.06346        -0.45515         2.39143
H          11.82252        -2.06186         3.26094
H          11.72144        -3.23563         1.91929
H          11.38765        -5.02479         3.58953
H          11.42082        -3.85815         4.90206
H          13.72330        -3.12027         4.23058
H          13.72824        -4.29475         2.92331
H          13.53175        -4.92992         5.91197
H          13.71677        -6.81816         3.50285
H          12.32777        -6.65331         4.58866
H          13.83515        -7.31342         5.20456
H          15.82678        -5.32940         3.91973
H          15.82473        -5.84123         5.61736
H          15.77360        -4.11848         5.21152

