%chk=CdC1CCOCqCCrCC1CqCrCqCrCCCqCrCC.chk
%NProcShared=20
# opt freq b3lyp/6-31g(2df,p)

Title Card Required 

0  1
C           1.06573        -0.05172         0.35593
C           2.38257        -0.00126         0.11336
C           3.23860        -1.24193         0.16058
C           4.14901        -1.15430         1.38454
O           5.24770        -0.27430         1.13815
C           5.06731         1.09842         1.50651
C           5.35325         1.29137         3.00141
C           5.20571         2.73936         3.45733
C           3.70730         1.71194         1.15875
C           3.17043         1.27081        -0.19707
C           2.39044         2.39124        -0.93358
C           3.26747         3.67381        -1.07421
C           1.91642         1.91788        -2.35509
C           1.09318         0.62363        -2.43713
C           1.08329         3.03045        -2.98039
C           0.59087         2.66456        -4.36704
C          -0.20151         3.79733        -4.99427
C           0.64821         5.06309        -5.10564
C          -0.70382         3.30292        -6.35461
C          -1.57621         4.33676        -7.03183
H           0.53984        -0.99699         0.46222
H           0.44519         0.84235         0.34567
H           3.82016        -1.32425        -0.76685
H           2.60539        -2.13385         0.22567
H           4.56893        -2.14480         1.57702
H           3.59136        -0.85641         2.27951
H           5.83311         1.64557         0.93917
H           6.36190         0.92908         3.22646
H           4.66955         0.66508         3.58531
H           5.89869         3.39174         2.91694
H           5.40255         2.82206         4.52815
H           4.19045         3.11926         3.29866
H           3.80720         2.79145         1.23070
H           2.98029         1.46232         1.94421
H           4.01027         1.02205        -0.86323
H           1.51884         2.67956        -0.33222
H           4.14296         3.48571        -1.70430
H           3.62360         4.07429        -0.12372
H           2.70924         4.51296        -1.49649
H           2.81445         1.76123        -2.96801
H           0.14810         0.73907        -1.89411
H           1.64841        -0.24973        -2.10634
H           0.83245         0.33663        -3.45635
H           1.70986         3.91476        -3.06584
H           0.23676         3.28547        -2.32937
H          -0.08056         1.80216        -4.32299
H           1.44829         2.38295        -4.99239
H          -1.06609         4.00374        -4.34873
H           1.54168         4.87225        -5.70885
H           0.96963         5.42885        -4.12660
H           0.08743         5.88691        -5.54648
H          -1.28440         2.37924        -6.22209
H           0.14682         3.04570        -6.99806
H          -2.43189         4.58406        -6.39600
H          -1.94128         3.95731        -7.98749
H          -1.01697         5.25348        -7.23264

