%chk=CdCCSCqOOrOCqCOrCCC.chk
%NProcShared=20
# opt freq b3lyp/6-31g(2df,p)

Title Card Required 

0  1
C           1.02855        -0.03684        -0.06316
C           2.37419        -0.01966        -0.03537
C           3.21127        -1.25939         0.01428
S           4.97645        -0.80770         0.20871
C           5.72179        -2.45329        -0.08386
O           5.22958        -2.93738        -1.33370
O           4.10196        -3.82679        -1.04246
O           7.15956        -2.36794        -0.10240
C           7.86047        -3.63109        -0.03310
C           7.58210        -4.55299        -1.24865
O           6.32924        -5.22596        -1.24030
C           9.38157        -3.31534         0.01196
C          10.24957        -4.58150         0.08258
C          11.73545        -4.29149         0.07490
H           0.47332         0.89223        -0.12086
H           0.46598        -0.96333        -0.04255
H           2.87738         0.93978        -0.09236
H           3.02688        -1.79699        -0.92046
H           2.92122        -1.88996         0.86163
H           5.43035        -3.10163         0.75326
H           4.07407        -4.22848        -1.93250
H           7.57753        -4.12384         0.90570
H           8.28151        -5.38096        -1.29070
H           7.67688        -3.97932        -2.17656
H           5.94557        -5.17202        -0.35069
H           9.60324        -2.66956         0.87257
H           9.65721        -2.72374        -0.87179
H          10.08550        -5.22330        -0.78549
H           9.98049        -5.16363         0.97093
H          12.01664        -3.75872        -0.83915
H          12.29010        -5.23641         0.09317
H          12.02809        -3.69723         0.94202

