%chk=CdCqCrCCCCqdOrOCCqCrC.chk
%NProcShared=20
# opt freq b3lyp/6-31g(2df,p)

Title Card Required 

0  1
C           0.98438         0.07500        -0.06355
C           2.32767         0.06157        -0.07993
C           3.06640        -0.77097        -1.09589
C           3.11802         0.88431         0.92398
C           4.63313         0.75437         0.76484
C           5.44430         1.57605         1.76533
C           6.92319         1.36311         1.49798
O           7.37201         0.63069         0.62267
O           7.69391         2.08891         2.35645
C           9.10975         1.90342         2.15575
C           9.90349         2.72035         3.18504
C           9.55064         2.28953         4.60813
C          11.40900         2.56551         2.96007
H           0.40549        -0.50767        -0.77459
H           0.42913         0.66603         0.65769
H           2.38694        -1.31465        -1.75936
H           3.69654        -1.51589        -0.59914
H           3.69651        -0.13752        -1.72869
H           2.83678         0.57267         1.93831
H           2.83653         1.94003         0.81782
H           4.91741         1.06537        -0.24848
H           4.91784        -0.30016         0.87165
H           5.20942         1.25490         2.78551
H           5.20488         2.63844         1.65261
H           9.37296         2.23307         1.14297
H           9.35609         0.83880         2.26000
H           9.63613         3.77914         3.07614
H           9.80371         1.23593         4.76928
H           8.48236         2.41737         4.80657
H          10.10130         2.88614         5.34273
H          11.72104         1.52154         3.07649
H          11.97429         3.16438         3.68310
H          11.69606         2.89516         1.95641

