%chk=CNC1qCCOrCCqCrC1C.chk
%NProcShared=20
# opt freq b3lyp/6-31g(2df,p)

Title Card Required 

0  1
C           0.99811         0.09795         0.24421
N           2.46027         0.18644         0.11133
C           2.85530         0.97231        -1.09542
C           2.45801         0.17999        -2.34630
C           2.66664         0.83558        -3.68692
O           2.21142        -0.03513        -4.71821
C           2.49543         2.47401        -0.79347
C           3.92696         2.89194        -1.22650
C           4.12343         3.50442        -2.60631
C           4.36745         1.42397        -0.87677
C           5.50333         0.80466        -1.66942
H           0.74016        -0.56560         1.07474
H           0.50192        -0.32754        -0.63215
H           0.55098         1.07497         0.44742
H           2.83020        -0.76540         0.10053
H           1.39108        -0.05556        -2.33123
H           2.96524        -0.79370        -2.33685
H           3.71630         1.02247        -3.89955
H           2.08798         1.75920        -3.75137
H           2.84022        -0.76817        -4.75747
H           2.34516         2.70728         0.27486
H           1.65431         2.90150        -1.34123
H           4.36473         3.62108        -0.52768
H           3.73816         2.90867        -3.41878
H           5.18519         3.65283        -2.82115
H           3.60892         4.46619        -2.68668
H           4.67265         1.38938         0.18525
H           5.33470         0.83180        -2.74433
H           5.64556        -0.24090        -1.38091
H           6.44103         1.33923        -1.48545

