%chk=COCCCqCrC1CCCCCO1.chk
%NProcShared=20
# opt freq b3lyp/6-31g(2df,p)

Title Card Required 

0  1
C           1.00633         0.04671         0.04058
O           2.43045        -0.01534         0.04800
C           2.88992        -0.32549        -1.26087
C           4.41098        -0.29426        -1.32763
C           4.91815        -0.63796        -2.74544
C           4.23708         0.26705        -3.79074
C           6.47502        -0.61278        -2.78877
C           7.08253         0.79555        -2.68867
C           8.53430         0.91359        -3.14201
C           8.65753         1.04421        -4.66148
C           8.38532        -0.24236        -5.43691
C           7.01206        -0.81203        -5.15353
O           6.96208        -1.40665        -3.87176
H           0.66250         0.33400         1.03496
H           0.59313        -0.93362        -0.21658
H           0.65696         0.79401        -0.68159
H           2.47120         0.42817        -1.93202
H           2.52479        -1.31609        -1.55578
H           4.81965        -1.00522        -0.59739
H           4.76666         0.69360        -1.01195
H           4.60435        -1.66658        -2.97347
H           4.47579         1.32253        -3.63101
H           3.14982         0.17793        -3.77207
H           4.48293        -0.00985        -4.81258
H           6.82376        -1.16136        -1.90262
H           7.00355         1.12982        -1.64618
H           6.49930         1.51462        -3.26855
H           9.13942         0.08238        -2.76340
H           8.94133         1.83170        -2.70044
H           9.66530         1.39117        -4.90969
H           7.96960         1.82660        -5.01376
H           9.15608        -0.98540        -5.20043
H           8.44911        -0.01818        -6.50741
H           6.77331        -1.59605        -5.87638
H           6.28359        -0.01386        -5.28711

