%chk=COCC1CCCqOC2CC2CrC1.chk
%NProcShared=20
# opt freq b3lyp/6-31g(2df,p)

Title Card Required 

0  1
C           0.88164         0.04006         0.00391
O           2.29981         0.10950        -0.06208
C           2.77275         1.19335         0.72532
C           4.28905         1.24287         0.67388
C           4.92527         2.15421        -0.35589
C           6.35507         2.33760         0.18217
C           6.23922         2.23488         1.71771
O           7.05844         1.19276         2.25885
C           7.24764         1.16797         3.71443
C           6.46067         2.09003         4.61044
C           6.09888         0.63528         4.54402
C           6.22244        -0.24397         5.72210
C           4.77519         1.89414         1.94574
H           0.54974        -0.81960        -0.58057
H           0.45178         0.95122        -0.42137
H           0.54345        -0.08442         1.03888
H           2.44320         1.02848         1.76188
H           2.33953         2.13552         0.37560
H           4.70714         0.22984         0.57713
H           4.41034         3.12367        -0.37057
H           4.90232         1.73833        -1.36537
H           6.72916         3.32395        -0.11690
H           7.03319         1.58188        -0.22685
H           6.52967         3.19433         2.15913
H           8.24734         0.88654         4.04642
H           5.78025         2.82229         4.19046
H           6.95433         2.47450         5.49814
H           5.20071         0.30333         4.05059
H           7.09956        -0.02529         6.33066
H           6.25425        -1.28498         5.38791
H           5.32146        -0.12873         6.33573
H           4.20853         2.79271         2.20749
H           4.57264         1.16410         2.70493

