%chk=COCqdCOOCqCrOOrCO.chk
%NProcShared=20
# opt freq b3lyp/6-31g(2df,p)

Title Card Required 

0  1
C           1.06859        -0.04432         0.06514
O           2.48753        -0.08170        -0.09018
C           3.02669         0.08903        -1.36158
C           2.30371         0.19879        -2.50423
O           0.95310         0.02806        -2.48741
O           0.36725         0.40671        -3.74596
C          -1.04748         0.34015        -3.47299
C          -1.44532         1.47613        -2.52820
O          -1.78498         0.44008        -4.69605
O          -3.19078         0.24496        -4.35170
C           4.53848         0.10641        -1.33412
O           5.11716         0.21817        -2.62843
H           0.80402        -0.14170         1.11930
H           0.59914        -0.88866        -0.45388
H           0.67415         0.91912        -0.27309
H           2.72728         0.34781        -3.48442
H          -1.26924        -0.63448        -3.01314
H          -1.18957         2.44342        -2.96990
H          -0.92776         1.41233        -1.56954
H          -2.51798         1.47332        -2.31464
H          -3.54240         0.46397        -5.23335
H           4.91215        -0.81927        -0.87843
H           4.89901         0.94417        -0.72813
H           4.83987        -0.56920        -3.12636

