%chk=COOCOOCCC1CCCCCCC1.chk
%NProcShared=20
# opt freq b3lyp/6-31g(2df,p)

Title Card Required 

0  1
C           0.86537        -0.03584         0.13205
O           2.28198        -0.05447         0.22139
O           2.72485         0.23276        -1.13160
C           4.14637         0.21971        -1.07902
O           4.63498         0.49489        -2.37984
O           6.08590         0.44099        -2.28330
C           6.48133         0.72712        -3.61400
C           7.99391         0.72687        -3.75681
C           8.49250         1.08846        -5.18941
C           7.33924         1.16769        -6.21016
C           7.67700         1.49160        -7.65439
C           8.16879         2.90553        -7.95960
C           7.52931         4.03828        -7.15106
C           8.36254         4.55852        -5.97472
C           8.61362         3.62600        -4.79106
C           9.37990         2.34292        -5.11538
H           0.45555        -0.24525         1.12279
H           0.52762        -0.80347        -0.56912
H           0.52735         0.94974        -0.19862
H           4.49452        -0.76695        -0.76562
H           4.49717         0.99462        -0.39375
H           6.07254         1.70968        -3.86887
H           6.03695        -0.03547        -4.26020
H           8.37686        -0.26265        -3.47853
H           8.41649         1.40313        -3.00248
H           9.14894         0.26617        -5.50733
H           6.57600         1.87680        -5.87893
H           6.84530         0.18688        -6.22954
H           6.75239         1.33641        -8.22926
H           8.39243         0.75744        -8.04148
H           7.94870         3.08307        -9.02057
H           9.25944         2.94959        -7.89435
H           6.50991         3.79348        -6.83312
H           7.41621         4.88990        -7.83541
H           7.84820         5.44422        -5.57792
H           9.32752         4.91685        -6.35246
H           7.66981         3.41580        -4.27765
H           9.21620         4.19082        -4.06627
H          10.12382         2.17734        -4.32304
H           9.98251         2.45154        -6.02054

