%chk=C1dCCdCCdCCdCCCCCdCCdCCdC1.chk
%NProcShared=20
# opt freq b3lyp/6-31g(2df,p)

Title Card Required 

0  1
C           5.16391         1.44080        -0.15102
C           3.23888         0.53960        -0.09953
C           3.90510         1.89972        -0.17930
C           5.68921         2.53115        -0.21446
C           5.12394         3.42565        -0.27574
C           6.29991         3.03275        -0.25025
C           7.25891         4.23833        -0.32619
C           8.52237         4.17690        -0.32206
C           9.30855         5.40781        -0.39954
C          10.70759         5.42968        -0.40082
C          11.09842         6.65251        -0.47817
C          12.34857         6.37765        -0.44824
C          13.29641         7.12834        -0.50888
C          14.38575         6.19075        -0.45123
C          12.47983         5.06591        -0.38447
C          10.16607         3.69267        -0.28971
C           7.75977         2.50513        -0.23027
H           3.03289         1.05026        -0.12828
H           2.89581        -0.99835         0.00060
H           2.55245         2.34525        -0.20815
H           5.51729         0.40998        -0.08544
H           4.43477         3.73928        -0.29559
H           7.26085         1.43933        -0.15025
H           6.73264         4.96792        -0.37212
H           9.08069         3.00289        -0.24829
H           9.13580         5.92329         0.46401
H           9.13577         5.81178        -1.32067
H          11.18601         4.49722        -1.41879
H          11.18797         4.63199         0.72451
H          11.38493         6.98275         0.42075
H          11.38547         6.86829        -1.41000
H          13.25295         4.35300        -0.31869
H          13.67271         8.08950        -0.56751
H          15.92187         5.54709        -0.40977
H          14.27012         6.33730        -0.45792
H          11.82953         4.57448        -0.35811
H           6.30419         1.35066        -0.14629

