%chk=CC1CCNN2CdC2C1C1dCS1.chk
%NProcShared=20
# opt freq b3lyp/6-31g(2df,p)

Title Card Required 

0  1
C           0.91607        -0.06922        -0.04529
C           2.44796         0.02078        -0.07718
C           2.89673         1.31387         0.63854
C           2.49171         2.52598        -0.20771
N           3.17454         2.58654        -1.51519
N           4.48575         2.16872        -1.45496
C           5.39375         1.26122        -1.49082
C           4.37709         0.48631        -1.52352
C           2.97193        -0.01036        -1.54318
C           2.88690        -1.35257        -2.10386
C           2.96194        -2.05522        -3.19868
S           2.09637        -2.83679        -1.95826
H           0.55113         0.04986         0.97827
H           0.54335        -1.01775        -0.42961
H           0.45493         0.70367        -0.66723
H           2.86103        -0.82778         0.48876
H           3.98533         1.31284         0.79961
H           2.49869         1.36675         1.65460
H           2.59447         3.44983         0.36419
H           1.42388         2.45936        -0.44376
H           3.12974         3.55465        -1.84193
H           6.45250         1.19270        -1.39555
H           2.34775         0.60506        -2.20330
H           3.17350        -1.97305        -4.23942

