%chk=CCC[SH]qCqCrdOrCqCrCSCS.chk
%NProcShared=20
# opt freq b3lyp/6-31g(2df,p)

Title Card Required 

0  1
C           1.09489         0.01648        -0.03774
C           2.61618         0.00763        -0.04428
C           3.19553         1.00783        -1.04147
S           4.98010         1.06018        -0.99650
C           5.54532        -0.52337        -1.58219
C           6.36130        -0.86357        -2.80189
O           5.25370        -1.43749        -0.80618
C           5.55992         2.29437        -2.16528
C           4.97592         3.65605        -1.78031
C           7.11189         2.37605        -2.21226
S           7.63264         3.53186        -3.54556
C           9.43736         3.48389        -3.40231
S          10.15889         4.72589        -4.51770
H           0.71671        -0.72402         0.67556
H           0.69849        -0.23649        -1.02624
H           0.70459         0.99652         0.25256
H           2.94328        -1.00686        -0.28613
H           2.98388         0.23061         0.96425
H           2.83893         2.00880        -0.77981
H           2.87878         0.78410        -2.06427
H           5.41638         1.31210         0.24887
H           6.48686         0.01837        -3.42684
H           5.85286        -1.61614        -3.40400
H           7.34467        -1.21608        -2.47770
H           5.16087         1.98692        -3.14074
H           5.31543         3.94610        -0.78047
H           3.88411         3.64520        -1.78040
H           5.27245         4.44252        -2.47940
H           7.57306         1.41145        -2.42602
H           7.50012         2.69198        -1.23794
H           9.80939         2.49833        -3.69239
H           9.76009         3.71454        -2.38428
H           9.55191         4.30678        -5.63904

