%chk=CCCCC1dC2CCqOCrdCCdCCdC12.chk
%NProcShared=20
# opt freq b3lyp/6-31g(2df,p)

Title Card Required 

0  1
C           1.07444        -0.05226         0.06747
C           2.60843        -0.03405         0.08914
C           3.19596         0.92368         1.22868
C           5.04850         1.01214         1.33312
C           6.40260         1.86358         2.34951
C           7.23680         2.37791         2.95784
C           7.06737         3.19721         3.93351
C           8.54781         3.29887         4.05141
O           9.83757         2.11405         2.64125
C           8.76142         1.11260         1.45304
C           9.04253         4.07362         4.97628
C          10.21085         3.55990         4.36501
C          11.15662         4.14118         5.05702
C          10.13509         3.06368         3.77789
C           8.42260         2.29437         2.86387
H           0.69270        -0.71419        -0.72012
H           0.68473         0.95166        -0.11652
H           0.68473        -0.40626         1.02476
H           2.94559         0.29297        -0.89846
H           2.94560        -1.06320         0.24134
H           2.74713         0.53117         2.14868
H           2.74712         1.89751         1.00034
H           5.07768         1.25903         0.25564
H           5.07769        -0.09252         1.39157
H           6.54184         2.53768         4.60605
H           6.54176         3.97290         3.39972
H           9.41048         0.61018         0.85563
H           8.05916         1.87883         0.90455
H           8.05920         0.44000         2.11373
H           8.36773         4.55082         5.54441
H          11.42792         2.75134         3.40290
H          10.82654         4.88197         5.93837
H          11.70589         3.49237         4.28585

