%chk=CCCCCCCCOC1qCrCdCC1.chk
%NProcShared=20
# opt freq b3lyp/6-31g(2df,p)

Title Card Required 

0  1
C           0.91024         0.05070        -0.05398
C           2.42541         0.05513        -0.05000
C           2.94528         1.12000         0.90166
C           4.46218         1.12739         0.90845
C           4.95801         2.19559         1.86310
C           6.46680         2.20498         1.87048
C           6.96310         3.27422         2.81976
C           8.46279         3.24289         2.78267
O           8.96739         4.24674         3.63746
C          10.40768         4.30200         3.76007
C          10.73646         4.23680         5.24077
C          11.20466         3.33453         2.88101
C          11.69015         4.30745         2.08385
C          11.06486         5.42101         2.89767
H           0.53633        -0.71488        -0.73811
H           0.52208         1.02264        -0.37506
H           0.52206        -0.15948         0.94780
H           2.79778         0.24674        -1.06309
H           2.79777        -0.93014         0.25385
H           2.57429         0.93131         1.91674
H           2.57440         2.10760         0.60039
H           4.84453         1.32293        -0.10116
H           4.84459         0.14605         1.21568
H           4.58543         2.00261         2.87622
H           4.58484         3.18049         1.55765
H           6.84928         2.39535         0.85898
H           6.85136         1.22307         2.17648
H           6.60810         3.09669         3.84205
H           6.59928         4.26702         2.52975
H           8.81021         3.42772         1.75975
H           8.81498         2.26201         3.12285
H          10.24979         3.36630         5.69924
H          10.36230         5.12737         5.75661
H          11.81098         4.15599         5.42568
H          11.24408         2.25083         2.84370
H          12.28801         4.29946         1.18021
H          10.34016         6.04301         2.35660
H          11.75422         6.08363         3.42830

