%chk=CCNC1CCdNNqCrCdCCqNrdN1.chk
%NProcShared=20
# opt freq b3lyp/6-31g(2df,p)

Title Card Required 

0  1
C           1.25502         0.13014        -0.04647
C           3.06152         0.24453        -0.11395
N           4.15844         1.69078         0.24171
C           6.10844         2.28628         0.27870
C           5.31409         3.01683         1.37146
C           6.59443         2.60252         1.88244
N           7.17809         3.49642         2.53124
N           8.48961         3.21125         2.53245
C           9.35310         2.13746         1.35535
C           9.09954         4.39921         2.76655
C          10.22876         4.17065         2.21396
C           9.30834         4.40141         0.60296
N          10.91151         5.23368         1.13290
N           7.77881         3.53197         0.26412
H           0.84931        -0.84183        -0.47530
H           0.75832         0.88937        -0.65921
H           0.79920         0.13007         0.96277
H           3.14302        -0.01886        -1.16682
H           3.19446        -0.67064         0.53003
H           3.60992         1.70798         1.20015
H           6.03375         1.09386         0.69662
H           4.66053         2.62800         2.18205
H           4.75750         3.66893         0.66130
H           7.21576         1.64678         1.54174
H           8.77059         1.42109         0.79146
H          10.14218         1.74000         1.96999
H           9.95688         2.55472         0.43852
H           8.70356         5.45747         2.67815
H          11.06353         3.45294         2.04626
H          11.31551         5.76630         2.16116
H          11.99940         4.83530         1.41310

