%chk=CCqNNqSrSqdSrNdCOrC1CdCC1.chk
%NProcShared=20
# opt freq b3lyp/6-31g(2df,p)

Title Card Required 

0  1
C           0.89902         0.24262        -0.06375
C           2.40639         0.08795         0.07115
N           2.77539        -0.84563         1.18493
N           2.30837        -0.45314         2.58382
S           0.64798        -0.74988         2.79855
S           3.00421        -1.52622         3.75245
S           4.93528        -1.12698         3.65949
N           2.56016        -0.78984         5.18152
C           2.82919        -1.46730         6.22083
O           2.40268        -1.05683         7.42887
C           2.96655        -0.41348        -1.30647
C           2.96241        -1.91846        -1.56462
C           2.09887        -1.84739        -2.58767
C           2.04542        -0.34391        -2.58733
H           0.52182         0.85407         0.74136
H           0.41675        -0.74313        -0.11036
H           0.57342         0.83137        -0.91681
H           2.84297         1.07817         0.26056
H           3.80408        -0.85244         1.22162
H           0.12079         0.41677         2.40166
H           3.37329        -2.42790         6.29519
H           1.86773        -0.25237         7.32075
H           3.95002         0.05156        -1.48966
H           3.43085        -2.74611        -1.03642
H           1.58173        -2.58490        -3.19642
H           1.02286         0.03084        -2.51001
H           2.47645         0.18896        -3.44032

