%chk=CCSCc1cccqCCrccscc1C.chk
%NProcShared=20
# opt freq b3lyp/6-31g(2df,p)

Title Card Required 

0  1
C           1.03593        -0.06527         0.07740
C           2.57160        -0.06579         0.07494
S           3.12552         0.29242         1.79362
C           5.17936         0.36510         2.13994
C           5.89230         0.76803         4.05502
C           7.06128         0.65885         3.55270
C           7.93146         0.86737         4.56582
C           9.13176         0.82300         4.34114
C          10.13183         0.64610         3.49027
C           9.17176         0.42718         2.44044
C           8.91107         1.09646         5.58412
C          10.22855         1.15145         5.91213
S          10.47760         1.57357         7.97576
C           8.56172         1.40342         7.16369
C           6.58371         1.16128         5.95111
C           4.73226         0.95128         4.96551
H           0.64854        -0.27417        -0.92502
H           0.64289         0.90607         0.39181
H           0.64289        -0.83017         0.75364
H           2.90392         0.70297        -0.61361
H           2.90392        -1.04558        -0.24922
H           5.34510         1.05422         1.18774
H           5.34524        -0.64831         1.54248
H           7.22747         0.44310         2.51763
H           7.84456         1.14514         6.01288
H          10.47218        -0.19878         4.05509
H          10.47219         1.64600         3.67063
H           8.55587        -0.51677         2.63348
H           9.76717         0.25970         1.63684
H           8.55586         1.36964         2.24036
H           7.40156         1.38820         6.95980
H          11.30120         1.10647         5.70115
H          10.16580         1.46345         7.37882
H           3.33628         0.98161         5.09904
H           3.81583         0.04863         4.14559
H           3.81675         1.45397         3.85483

