%chk=CdC1CdCCqCtNrdCCdCdCdCCdNN1.chk
%NProcShared=20
# opt freq b3lyp/6-31g(2df,p)

Title Card Required 

0  1
C           2.51631        -0.43885         0.29961
C           4.08119        -0.74702         0.34154
C           3.54520        -0.77470        -1.10079
C           4.52237        -0.19919        -1.74276
C           5.17156        -1.33864        -2.22347
C           4.41156        -1.99079        -3.36693
N           3.78107        -2.53181        -4.31553
C           6.45892        -1.25362        -2.56804
C           7.19489        -2.02022        -3.52935
C           8.46865        -1.97766        -3.74490
C           9.62395        -1.90405        -3.61776
C          10.29434        -1.49281        -2.59300
C           9.13440        -1.88563        -1.10275
N           7.64810        -1.33691        -0.62408
N           5.96765        -1.23396         0.20190
H           1.56538        -0.52086        -0.49842
H           1.67040         0.09175         0.92488
H           2.68440        -1.29386        -1.65149
H           5.16892         0.41394        -1.13282
H           6.92603        -0.44526        -2.03088
H           6.68560        -2.56256        -4.27671
H          11.41076        -1.36662        -3.03991
H           9.82187        -2.96068        -0.97205
H           6.07911        -0.29523         0.66555

