%chk=CdC1CdC2SCdCCdCC2dCCdCNdCS1.chk
%NProcShared=20
# opt freq b3lyp/6-31g(2df,p)

Title Card Required 

0  1
C           1.30117         0.26126        -0.32473
C           2.36233         0.26552        -1.17967
C           3.39421         1.28326        -0.81854
C           4.76262         1.24382        -0.74483
S           5.67319        -0.07835        -0.03791
C           6.45452         0.78288         1.27693
C           7.06092         1.98149         1.27561
C           7.46637         2.76843         0.15374
C           6.89294         2.82304        -1.03750
C           5.60965         2.29878        -1.44287
C           5.33860         2.77969        -2.67385
C           4.17688         2.44845        -3.37588
C           3.66724         2.78809        -4.52012
N           2.44832         2.28749        -4.86446
C           1.83006         1.26312        -4.29695
S           2.03349        -0.02938        -3.01169
H           0.40380         0.79624        -0.64562
H           0.91199        -0.67484         0.10722
H           2.92540         2.24582        -1.02745
H           6.49909         0.24590         2.22168
H           7.44665         2.37839         2.21322
H           8.36580         3.36829         0.27301
H           7.44731         3.37770        -1.79614
H           5.98494         3.46234        -3.21335
H           3.55286         1.79603        -2.84996
H           4.18742         3.48388        -5.18513
H           0.97425         1.03405        -4.95264

