%chk=CdCCqNrOOCCCdCCCO.chk
%NProcShared=20
# opt freq b3lyp/6-31g(2df,p)

Title Card Required 

0  1
C           0.90165        -0.07065        -0.01576
C           2.24234        -0.02772        -0.07360
C           3.02417         0.41106        -1.27800
N           2.68388         1.77984        -1.63379
O           4.41132         0.30254        -0.95873
O           5.11999         0.61278        -2.19669
C           6.49867         0.56151        -1.86833
C           7.28307         0.99568        -3.09754
C           8.75994         0.92079        -2.86523
C           9.65134         1.24571        -3.81319
C          11.12855         1.16372        -3.58429
C          11.91510         1.59216        -4.81885
O          13.31192         1.49887        -4.57190
H           0.38885        -0.39455         0.88303
H           0.29362         0.21369        -0.86888
H           2.81642        -0.34203         0.79554
H           2.81303        -0.27013        -2.11112
H           2.93301         2.36551        -0.84263
H           1.68177         1.84985        -1.76417
H           6.75413        -0.46591        -1.58653
H           6.70769         1.22699        -1.02196
H           6.99415         2.01975        -3.36715
H           7.00183         0.35912        -3.94624
H           9.11144         0.58463        -1.89229
H           9.29482         1.57698        -4.78653
H          11.41136         0.13891        -3.31333
H          11.41010         1.80130        -2.73679
H          11.67920         2.62472        -5.09867
H          11.67718         0.94687        -5.67104
H          13.51592         2.09400        -3.83039

