%chk=CdCOCCdCCCqOrqCCCrCOCC.chk
%NProcShared=20
# opt freq b3lyp/6-31g(2df,p)

Title Card Required 

0  1
C           1.07042        -0.05435        -0.07324
C           2.40499        -0.10366        -0.02222
O           3.01417        -0.88691         0.91105
C           4.43609        -0.86306         0.87097
C           4.91265        -1.77104         1.96896
C           6.19285        -2.15477         2.05688
C           6.82827        -2.87087         3.22480
C           8.38725        -2.78856         3.27544
O           8.91624        -3.33821         2.05430
C           8.93736        -1.35049         3.50957
C           8.50967        -0.32126         2.46442
C           9.05203         1.06790         2.69011
C           8.89183        -3.71041         4.41783
O          10.32539        -3.70280         4.47440
C          10.81268        -4.57111         5.48978
C          12.32712        -4.55291         5.46153
H           0.54859         0.54729        -0.80453
H           0.48487        -0.63324         0.63299
H           3.04255         0.44967        -0.69659
H           4.80029         0.15658         1.05901
H           4.79958        -1.20695        -0.10576
H           4.19168        -2.08309         2.71861
H           6.84301        -1.82314         1.25381
H           6.52871        -3.92253         3.15367
H           6.42907        -2.46899         4.16667
H           8.64359        -2.78224         1.31046
H          10.03457        -1.37638         3.52212
H           8.61468        -1.00318         4.50008
H           7.42929        -0.18772         2.50553
H           8.79391        -0.65926         1.46241
H           8.68889         1.46135         3.64362
H           8.67756         1.71941         1.89251
H          10.14237         1.08076         2.67535
H           8.55883        -4.74014         4.23906
H           8.50149        -3.36781         5.38311
H          10.45050        -5.59016         5.31591
H          10.45459        -4.22065         6.46301
H          12.70111        -4.89966         4.49238
H          12.73371        -5.19555         6.24724
H          12.70499        -3.53523         5.60401

