%chk=CdCqCrCCC1CC1CCqCrC.chk
%NProcShared=20
# opt freq b3lyp/6-31g(2df,p)

Title Card Required 

0  1
C           1.04630        -0.05963         0.07013
C           2.39211        -0.07369         0.09802
C           3.14716        -0.84181         1.14147
C           3.16026         0.68837        -0.95254
C           4.68476         0.61303        -0.84220
C           5.42818         1.35378        -1.91308
C           4.75554         1.92654        -3.13820
C           5.27246         2.85043        -2.06746
C           6.48283         3.70651        -2.30414
C           6.81636         4.55125        -1.06136
C           7.11197         3.66642         0.15107
C           8.00561         5.46791        -1.33789
H           0.45888        -0.60072         0.80208
H           0.50703         0.49338        -0.69300
H           2.47862        -1.35316         1.83925
H           3.78245        -0.16887         1.72662
H           3.77811        -1.60455         0.67303
H           2.84980         1.74095        -0.91691
H           2.86319         0.29413        -1.93320
H           4.99535        -0.43770        -0.89428
H           5.01179         0.99004         0.13442
H           6.42831         0.94475        -2.02565
H           3.67808         1.87148        -3.24703
H           5.27808         1.85096        -4.08275
H           4.52478         3.36466        -1.47245
H           6.27756         4.37197        -3.15165
H           7.34868         3.09370        -2.58709
H           5.94965         5.18158        -0.82161
H           7.96372         3.00662        -0.04371
H           6.25137         3.04194         0.40749
H           7.33933         4.27428         1.03204
H           8.90242         4.88796        -1.57976
H           8.22794         6.08628        -0.46159
H           7.79569         6.13903        -2.17696

