%chk=COC1dNCdc2cqdNrccsc2dCCdC1.chk
%NProcShared=20
# opt freq b3lyp/6-31g(2df,p)

Title Card Required 

0  1
C           1.06178        -0.01888         0.13463
O           2.38918        -0.20424         0.69860
C           3.28676         0.82079         0.74243
N           4.04225         1.08760         1.76155
C           4.89027         2.20978         1.64527
C           6.14335         2.28131         1.15494
C           7.01260         3.49244         1.36453
N           6.58948         4.68521         1.66888
C           8.48268         3.31051         1.36894
C           9.07543         2.09806         1.27876
S           8.30905         0.63453         0.75308
C           6.67988         1.17887         0.39792
C           5.91078         0.58238        -0.54071
C           4.54476         0.94936        -1.09707
C           3.42662         1.50128        -0.55047
H           0.72676        -0.93838        -0.36440
H           0.95304         0.80963        -0.57756
H           0.39594         0.15809         0.98216
H           4.39491         3.13967         1.89721
H           5.57740         4.70589         1.75278
H           9.07113         4.18744         1.61898
H          10.12388         2.04207         1.56587
H           6.29320        -0.35066        -0.96133
H           4.22995        -0.01071        -1.53247
H           3.19884         2.53235        -0.25836

