%chk=CtCCCCqCCCCCdOrOCqCrO.chk
%NProcShared=20
# opt freq b3lyp/6-31g(2df,p)

Title Card Required 

0  1
C           0.93631         0.02683        -0.07228
C           2.24017         0.02683        -0.07228
C           3.76017         0.02683        -0.07228
C           4.28118         0.52122        -1.40273
C           5.80156         0.43617        -1.37195
C           6.20455        -1.00337        -1.04347
C           5.90959        -1.57505         0.31018
C           6.47263        -2.94353         0.51253
C           5.88346        -3.40086         1.84122
C           6.32010        -4.78807         2.11445
O           6.00275        -5.38370         3.15171
O           6.32298         0.80359        -2.65821
C           7.74248         0.96757        -2.71949
C           8.53660        -0.33772        -2.68196
O           8.03930         1.57550        -3.96802
H          -0.12949         0.02779        -0.07290
H           3.69322        -1.03611        -0.01399
H           4.13315         0.56263         0.80179
H           3.93328         1.54149        -1.61431
H           3.87897        -0.08768        -2.22670
H           6.17263         1.14823        -0.62342
H           7.26002        -1.01730        -0.95211
H           5.92040        -1.66625        -1.87027
H           4.89605        -1.87060         0.43255
H           6.17522        -0.86073         1.09692
H           7.56208        -2.93404         0.49235
H           6.11329        -3.58905        -0.30282
H           4.78236        -3.39014         1.80668
H           6.20009        -2.72638         2.64411
H           6.92093        -5.27435         1.33502
H           8.07297         1.65467        -1.93304
H           8.00905        -1.11475        -3.25037
H           8.72148        -0.69744        -1.67156
H           9.55080        -0.23282        -3.05885
H           7.81252         0.90310        -4.63234

