%chk=OdC1CCCCOCC2CCCC1CO2.chk
%NProcShared=20
# opt freq b3lyp/6-31g(2df,p)

Title Card Required 

0  1
O           1.75600         0.40373         0.44308
C           2.96046         0.14749         0.74388
C           3.33401        -1.19058         0.18981
C           2.77055        -2.20877         1.16439
C           3.93118        -2.56734         2.07636
C           3.58497        -2.25598         3.52316
O           4.53906        -1.40705         4.14979
C           3.92617        -0.22454         4.75260
C           4.32365         0.91824         3.89066
C           3.29999         2.17105         3.58577
C           3.60279         3.18550         2.10930
C           2.80506         2.34312         1.32255
C           4.08734         1.33496         1.34596
C           5.47786         2.08359         2.73269
O           5.47061         1.60757         4.11332
H           4.39991        -1.14953         0.01714
H           2.87854        -1.40631        -0.79732
H           2.35448        -3.09878         0.66928
H           1.90556        -1.79435         1.71070
H           4.84236        -2.04384         1.76286
H           4.13213        -3.63363         1.93979
H           3.59417        -3.17942         4.09334
H           2.58770        -1.82135         3.59057
H           4.28691        -0.15607         5.77466
H           2.84547        -0.26529         4.67128
H           4.78147         0.30431         3.08571
H           3.34148         2.94126         4.34693
H           2.31253         1.69904         3.58994
H           4.60316         3.20631         1.42239
H           3.56401         4.24849         2.14168
H           2.46164         2.89658         0.44554
H           1.88287         1.96721         1.82832
H           4.60523         1.53118         0.42258
H           5.24066         3.15427         3.09653
H           6.46791         2.31627         2.46662

