%chk=OdCC1CdCCdCCdNCdCCdCNdCCdC1.chk
%NProcShared=20
# opt freq b3lyp/6-31g(2df,p)

Title Card Required 

0  1
O           2.66829        -0.04663        -0.85865
C           4.26541         0.05010        -1.35845
C           6.29741        -0.13561        -2.60534
C           5.11752        -0.30604        -1.02068
C           5.96961        -1.09206        -1.77934
C           7.27635        -0.94985        -1.23605
C           7.92104        -1.57617        -2.19533
C           9.43091        -1.26792        -1.97627
N          10.25876        -1.75584        -2.82291
C          11.62306        -1.60179        -2.59977
C          12.47970        -2.32527        -3.39411
C          14.13028        -2.14184        -3.16241
C          14.71244        -2.60590        -4.31582
N          14.89415        -1.29228        -4.45939
C          13.11484        -0.93167        -4.78944
C          10.71618        -0.53681        -4.26008
C           8.71174        -0.32993        -3.57920
H           3.40395         0.30374         0.11172
H           4.63268        -0.67736        -2.23965
H           5.08723         0.11304         0.07991
H           5.13460        -1.45252        -3.03119
H           7.35778        -0.14380        -0.56612
H           7.43607        -1.64686        -3.40411
H           9.69510        -0.46898        -1.31517
H          11.98040        -0.76961        -2.01824
H          12.10689        -2.28174        -4.73828
H          14.35004        -1.05983        -2.71645
H          14.34218        -2.74868        -5.60045
H          14.68566        -1.41455        -5.52512
H          12.42019        -0.66316        -4.30503
H           7.33253        -0.00601        -3.66264

