%chk=SCdCC1dc2[nH]sc2dCCdCCdCCdCCdCSCdC1.chk
%NProcShared=20
# opt freq b3lyp/6-31g(2df,p)

Title Card Required 

0  1
S           1.03085         0.01003         0.09675
C           2.74365         0.02081         0.11437
C           3.07708        -0.66137        -1.00004
C           2.17403        -1.54545        -2.44430
C           4.24202        -1.34423        -2.11557
N           6.15941        -1.21338        -1.90181
S           7.28299        -1.99917        -3.18548
C           5.31340        -1.98076        -3.15541
C           4.20946        -2.26276        -3.61609
C           3.19595        -2.69257        -4.31823
C           1.98900        -2.85534        -4.58414
C           1.12805        -3.36315        -5.41371
C          -0.10475        -3.40685        -5.48508
C          -0.64778        -4.02317        -6.49191
C          -1.78298        -3.81019        -6.14400
C          -3.19006        -4.58443        -7.40879
C          -4.73345        -4.47559        -7.23100
S          -3.65043        -3.67478        -5.92278
C          -1.67140        -2.73659        -4.39014
C           0.01173        -2.08182        -3.32050
H           0.64511         0.65143         1.14455
H           3.44274         0.45753         0.82781
H           2.17604        -0.90695        -1.40122
H           7.45251        -0.83916        -1.29048
H           3.33371        -2.05391        -3.27492
H           3.56377        -3.14860        -5.06321
H           1.18750        -2.61552        -4.19237
H           1.43997        -3.83454        -6.18378
H          -0.26531        -2.87422        -4.61497
H          -0.69483        -4.53903        -7.33462
H          -2.89892        -2.99280        -4.80870
H          -2.84277        -5.16779        -8.36177
H          -5.50524        -4.01659        -6.48117
H          -2.91198        -3.51221        -5.65721
H           1.52295        -1.83040        -2.90979

