%chk=[C]dCC1dNNdNONdCCdCCdCCdCN1.chk
%NProcShared=20
# opt freq b3lyp/6-31g(2df,p)

Title Card Required 

0  1
C           2.29475         0.02734        -0.81530
C           4.01596         0.15400        -1.74910
C           5.77260         0.39251        -3.50745
N           4.87697         0.17424        -1.89835
N           5.84994         0.24781        -2.44069
N           6.89943         0.19525        -2.05322
O           7.47484         0.35396        -3.22330
N           8.79563         0.36539        -3.30757
C           9.35366         0.51685        -4.42417
C          10.59131         0.48174        -4.16529
C          11.33718         0.62294        -5.20628
C          12.69098         0.66805        -5.53883
C          11.46490         0.76691        -6.26766
C          12.36703         0.78133        -6.37397
C          10.04304         0.72268        -5.94159
N           7.81961         0.57900        -4.88232
H           3.36042        -0.07173        -0.08493
H           8.70876         0.71958        -5.91875
H          11.36189         0.42182        -3.72356
H          10.47145         0.87007        -7.02818
H          13.52479         0.57943        -4.88550
H          12.45013         0.97444        -7.79767
H          14.12966         0.77831        -6.35169
H          11.30571         0.93669        -7.51938
H           6.39728         0.54725        -4.64826

