%chk=[C]dCdC1CdCSCCdCCqCrdC1.chk
%NProcShared=20
# opt freq b3lyp/6-31g(2df,p)

Title Card Required 

0  1
C           2.00616         0.03331         0.06216
C           3.79102        -0.03021         0.07151
C           5.63511        -0.27754         0.10794
C           4.70329        -1.42347         0.27669
C           5.79071        -1.96684         0.35670
S           6.36469        -3.41516         0.56998
C           8.04282        -2.89696         0.49367
C           9.02471        -3.86334         0.63598
C          10.21938        -3.30311         0.55348
C           9.58714        -1.75560         0.32559
C          11.13329        -3.43141         0.57237
C           7.76486        -0.75403         0.17810
H           3.91376        -2.14725         0.38327
H           6.72172        -1.86363         0.34150
H           8.36497        -1.92026         1.56216
H           8.36497        -2.26973        -0.81101
H           8.78564        -4.84232         0.78014
H          11.06974        -2.04103         0.36763
H          11.86493        -4.83691         0.77934
H          12.38975        -3.88362         1.36410
H          12.38975        -4.09266        -0.05539
H           6.76516         0.34644         0.01605

