%chk=[C]dNC1dCCdCCdCCdC1.chk
%NProcShared=20
# opt freq b3lyp/6-31g(2df,p)

Title Card Required 

0  1
C           1.10536        -0.08727        -0.09400
N           2.36116         0.00104        -0.14445
C           2.88283         0.95607        -1.02253
C           2.42708         2.22144        -1.02205
C           2.73637         3.46712        -1.65145
C           3.66809         3.91384        -2.49189
C           4.73371         3.30176        -3.21282
C           5.17709         2.05014        -3.32443
C           4.85385         0.80451        -2.70246
C           3.97884         0.37998        -1.78390
H           1.57923         2.39362        -0.35175
H           2.02941         4.23790        -1.33018
H           3.59781         4.98248        -2.71485
H           5.26976         4.03267        -3.82495
H           5.99642         1.93286        -4.03941
H           5.52048         0.01951        -3.07542
H           4.11288        -0.68195        -1.54494

