%chk=[N][N]CCdCC1dCCqOrdC1.chk
%NProcShared=20
# opt freq b3lyp/6-31g(2df,p)

Title Card Required 

0  2
N           0.90755         0.01634        -0.00977
N           2.33676         0.01571        -0.00894
C           2.82428        -0.08943        -1.37260
C           4.33373        -0.08614        -1.34276
C           4.97826        -0.17023        -2.50711
C           6.38459        -0.19725        -2.85733
C           6.97706        -0.28566        -4.05049
C           8.24710        -0.24631        -3.41827
O           9.38703        -0.29440        -3.99103
C           7.64923        -0.15704        -2.20890
H           2.48049         0.74915        -1.99564
H           2.48096        -1.01387        -1.85971
H           4.85581        -0.01657        -0.39615
H           4.35867        -0.23576        -3.39891
H           6.60318        -0.36020        -5.05987
H           9.20139        -0.35462        -4.94779
H           7.95589        -0.08640        -1.16745

