%chk=[NH]C1dCCqSrdCCdCCdCCdCS1.chk
%NProcShared=20
# opt freq b3lyp/6-31g(2df,p)

Title Card Required 

0  2
N           2.59326         0.25118        -0.18420
C           4.43112         0.70775        -0.41017
C           3.32731         1.42891        -0.77648
C           4.74478         1.26768        -0.69774
S           5.71327        -0.69557         0.29925
C           5.22813         2.47693        -1.31169
C           6.86875         2.90289        -1.52793
C           7.31615         4.01114        -2.09075
C           7.71432         2.93033        -1.54189
C           8.77729         3.86310        -2.01557
C          10.47586         3.42576        -1.79337
C           9.22407         2.74962        -1.45040
S           6.97736         1.14203        -0.63568
H           1.17323         0.65705        -0.38739
H           2.54368         2.07520        -1.10930
H           4.57622        -1.27340         0.59274
H           4.57840         3.20351        -1.68064
H           8.10604         1.84647        -0.99131
H           6.46666         4.37925        -2.27768
H           9.08562         1.65126        -0.89240
H           9.00097         4.97683        -2.58114
H          11.63821         3.34659        -1.75332
H          10.18258         3.97736        -2.07361

