%chk=[O][N]C1dCC2dCC2dC2NdNCdNCdCNdC3NdC1C32.chk
%NProcShared=20
# opt freq b3lyp/6-31g(2df,p)

Title Card Required 

0  1
O           1.60111        -0.17499         0.24422
N           2.90725         0.20592         0.72460
C           3.63300        -0.82703         1.31674
C           3.14858        -2.14194         1.30324
C           3.74104        -3.41763         1.53810
C           4.68048        -4.37206         1.77411
C           5.14502        -3.11963         1.59759
C           6.24974        -2.48540         1.54700
N           7.30203        -3.13009         2.05997
N           8.26182        -2.76477         1.42352
C           9.36298        -3.05801         2.08916
N          10.34833        -2.46578         1.56222
C          10.94033        -1.74277         2.50990
C          10.39232        -0.48623         2.58967
N           8.83496        -0.01323         2.61014
C           7.49941        -0.23109         2.12739
N           6.18227         0.31311         2.60878
C           5.32852        -0.36622         1.82883
C           6.44912        -1.07983         1.13118
H           2.10323        -2.31683         0.95305
H           5.19441        -5.26624         1.95059
H           9.37048        -3.61180         3.03979
H          11.92059        -2.21377         2.74422
H          11.28859         0.20233         2.77229
H           6.24327        -0.83686         0.07408

