%chk=c1ccc2ccnc-2nc2ccc-2c1.chk
%NProcShared=20
# opt freq b3lyp/6-31g(2df,p)

Title Card Required 

0  1
C           1.31231         0.04347        -0.41746
C           2.60618        -0.48553        -0.15446
C           3.35702        -0.66981        -1.23818
C           4.71418        -0.35602        -1.16281
C           5.64326        -0.92890        -0.39816
C           6.85135        -0.35731        -0.94942
N           6.67530         0.55762        -1.85448
C           5.31111         0.70538        -1.93298
N           4.74061         1.65517        -2.60864
C           3.38316         1.97786        -2.65317
C           2.90300         2.74281        -3.65389
C           1.57620         2.59532        -3.16235
C           2.01121         1.87126        -2.09599
C           1.32779         1.34986        -0.76628
H           0.76470        -0.59431        -1.13610
H           3.02798        -0.26689         0.82552
H           2.91731        -0.61121        -2.23709
H           5.47128        -1.71293         0.30104
H           7.81421        -0.76035        -0.60396
H           3.41672         3.18611        -4.50013
H           0.69665         2.99989        -3.64170
H           0.38954         1.75120        -0.35510

