%chk=c1ccnc2ccnc3cc-2c-3cc1.chk
%NProcShared=20
# opt freq b3lyp/6-31g(2df,p)

Title Card Required 

0  1
C           1.83531        -0.89079        -0.60517
C           3.50055        -0.20164        -0.12035
C           4.38654        -1.20020        -0.82284
N           5.71359        -1.59157        -1.09817
C           6.30854        -2.82319        -1.96455
C           7.10369        -1.70106        -1.17519
C           8.09982        -2.24631        -1.55878
N           9.15729        -2.71791        -1.89056
C           8.47740        -3.66179        -2.55453
C           9.51497        -4.30251        -3.00535
C           7.70149        -4.23908        -2.96189
C           6.22718        -3.75544        -2.61838
C           4.46488        -3.19343        -2.22604
C           2.55487        -2.12780        -1.47542
H           0.56000        -0.72859        -0.49106
H           3.20195         0.73331         0.53740
H           3.96041        -2.06450        -1.43087
H           7.46250        -0.92383        -0.62843
H           7.63429        -2.84002        -1.97672
H          10.98046        -3.81220        -2.66042
H           4.89932        -4.06386        -2.83748
H           2.15802        -0.84566        -0.57342

