%chk=C1dCCdc2ccccccccc2dCCdC1.chk
%NProcShared=20
# opt freq b3lyp/6-31g(2df,p)

Title Card Required 

0  1
C           1.49998        -0.01139        -0.08426
C           2.62137         0.43187         0.40768
C           4.06093         1.09079         1.14023
C           5.86755         1.05077         1.08142
C           5.21862         1.90449         2.03836
C           6.34032         2.19020         2.35703
C           7.03394         2.89014         3.12910
C           8.26026         2.90119         3.13067
C           9.03512         3.60424         3.92044
C           9.72873         2.84528         3.08756
C          10.86150         3.16046         3.42887
C           9.83697         2.04860         2.17677
C           8.01467         1.04479         1.13568
C           6.37117         0.29271         0.22403
C           4.67684        -0.65251        -0.79479
C           2.80051        -0.99989        -1.17833
H           0.54504         0.53228         0.52071
H           3.18551        -0.04693        -0.11911
H           2.93673         1.57032         1.66753
H           4.58054         2.46104         2.65368
H           7.20498         1.98752         2.14021
H           6.68177         3.47088         3.77237
H           8.44709         2.10745         2.24382
H           8.95503         4.29693         4.68454
H          11.25087         2.23485         2.41616
H          11.08346         4.22169         4.60311
H          11.10595         2.96360         3.20241
H           4.98687        -0.05599        -0.11122
H           5.25807        -1.46667        -1.69404
H           1.21299        -1.09329        -1.27975

