%chk=C1dCCdC2CdCqCSS2rSCCdC1.chk
%NProcShared=20
# opt freq b3lyp/6-31g(2df,p)

Title Card Required 

0  1
C           1.81916        -1.05146        -0.16890
C           2.63001        -0.02433         0.09408
C           3.00858         1.29991         0.29446
C           4.35810         1.51234         0.30536
C           5.24227         0.40581         0.06371
C           6.53847         0.18816         0.08307
C           7.52969         1.23731         0.32021
S           6.97416         2.95868         0.46399
S           4.94553         3.07673         0.65245
S           7.01047        -1.45134        -0.19490
C           5.57578        -2.54797        -0.37944
C           3.97487        -2.74118        -0.44246
C           2.62963        -2.34657        -0.38309
H           0.76283        -0.84514        -0.28057
H           3.42141        -0.61263         0.45537
H           2.30495         2.11295         0.42937
H           4.83032        -0.52317        -0.22732
H           8.19635         1.24314        -0.54613
H           8.07407         0.98344         1.22858
H           5.86859        -2.89146        -1.37680
H           5.86099        -3.22822         0.43056
H           4.00829        -3.82372        -0.67239
H           1.87674        -3.13179        -0.53085

