%chk=C1dCCdCC2dCCdCCdCCdC2Cd1.chk
%NProcShared=20
# opt freq b3lyp/6-31g(2df,p)

Title Card Required 

0  1
C           2.30582        -0.40328        -0.94398
C           2.61476         0.11153         0.24924
C           3.28196         1.38317        -0.03733
C           4.52961         1.21584        -0.52863
C           4.58232         1.41240        -1.96998
C           4.75324         2.67194        -2.42674
C           5.46896         3.21135        -3.55199
C           5.40654         2.81556        -4.82207
C           4.63743         1.72469        -5.37670
C           4.46654         0.43935        -5.01315
C           4.59627        -0.16187        -3.69139
C           3.78695         0.39850        -2.76413
C           2.41492        -0.23886        -2.22587
H           3.07229        -0.50767         1.00610
H           2.65211         2.02313        -0.68979
H           5.14513         0.35399        -0.23700
H           4.21466         3.45138        -1.89793
H           6.07598         4.09868        -3.32177
H           5.94334         3.42844        -5.55796
H           4.07087         2.03735        -6.24747
H           4.01549        -0.25661        -5.70342
H           5.68043        -0.09733        -3.49387
H           1.46304         0.20557        -2.57889

