%chk=C1dCC2dCc3ccccc3C2dCCdNCdN1.chk
%NProcShared=20
# opt freq b3lyp/6-31g(2df,p)

Title Card Required 

0  1
C           1.77452        -0.97620        -0.28868
C           2.46162         0.13739         0.05484
C           3.03383         0.99113        -1.00857
C           2.70457         2.28412        -1.23294
C           3.52953         2.79984        -2.33575
C           3.55897         4.05646        -2.91771
C           4.45917         4.28391        -3.97051
C           5.31363         3.26733        -4.42845
C           5.28481         2.00755        -3.84065
C           4.39086         1.79622        -2.80443
C           4.11824         0.61963        -1.99193
C           4.76192        -0.55646        -2.17701
C           4.38393        -1.53991        -1.18051
N           3.83648        -2.71015        -1.34221
C           3.02313        -2.99592        -0.25929
N           2.04756        -2.24380         0.21523
H           0.82222        -0.81035        -0.79783
H           3.16078         0.02572         0.88735
H           1.97316         2.87350        -0.70315
H           2.90678         4.85341        -2.57679
H           4.50201         5.26137        -4.44548
H           6.00353         3.45848        -5.24685
H           5.94222         1.21983        -4.19049
H           5.51256        -0.77196        -2.92355
H           4.33251        -1.11882        -0.18457
H           3.20736        -3.96476         0.24988

