%chk=C1dCCdC2CdCCdC3OCqdC3CdCC2rCd1.chk
%NProcShared=20
# opt freq b3lyp/6-31g(2df,p)

Title Card Required 

0  1
C           3.02609        -0.72744        -0.20529
C           3.41638         0.24072         0.47872
C           3.39059        -0.48877         1.77848
C           4.75015        -0.45703         1.76972
C           4.83037        -1.72187         2.52309
C           5.95705        -1.34921         3.12932
C           7.07545        -2.60820         3.22707
C           7.68347        -2.55504         1.95769
O           6.45495        -2.55744         1.50140
C           6.21130        -1.98839         0.47308
C           7.64855        -1.75560         0.70229
C           8.81122        -0.75498         0.63698
C           7.85133         0.11782         0.17982
C           5.92556         0.20190         0.25553
C           4.14135        -1.59885        -0.16353
H           3.11560         0.76395        -0.41650
H           2.59657        -1.54795         1.94869
H           4.50516        -2.75622         2.76278
H           6.51207        -0.49713         2.31696
H           6.72197        -3.55688         3.73362
H          10.11028        -0.64247         0.70374
H           8.61901         0.61101        -0.43055
H           5.47855        -0.11584        -0.91837
H           5.46060         1.18487         0.17539
H           2.90156        -1.71470         0.28334

