%chk=C1dCCNCdc2nnc3cqc2dCNd3rdC1.chk
%NProcShared=20
# opt freq b3lyp/6-31g(2df,p)

Title Card Required 

0  1
C           2.30749         0.25113         0.23052
C           2.94257        -0.51348        -0.60952
C           3.13568         1.03583        -1.22491
N           4.50790         0.89141        -1.36367
C           5.46433         1.68983        -1.80314
C           6.60717         1.13957        -1.38560
N           7.38399        -0.30846        -0.44518
N           8.43681        -0.32983         0.33217
C           8.23105         0.75700        -0.27613
C           6.20350         0.81860         0.15619
C           7.74932         1.46203        -0.99455
C           9.46164         1.55523        -1.49359
N           9.59851         0.64738        -0.51041
C           4.27859         0.42042         0.62333
H           0.97467         0.54252        -0.42785
H           3.27968        -1.27372         0.57072
H           2.78731         1.99297        -0.64141
H           2.73686         0.74126        -2.13715
H           4.94195        -0.17431        -0.80851
H           5.08380         2.48811        -2.37071
H          10.97240         1.61569        -1.56399
H           2.86611        -0.01801         1.12105

