%chk=C1dCCdCCdCC2dCCdCCdCCdCC2dCCdCCd1.chk
%NProcShared=20
# opt freq b3lyp/6-31g(2df,p)

Title Card Required 

0  1
C           1.25940        -0.64925         0.82482
C           2.22708        -0.04470         0.12431
C           3.17048        -0.74393         0.93452
C           4.47718        -0.81457         1.01638
C           5.28736        -1.65082         1.98537
C           6.67763        -1.90558         2.28056
C           7.80562        -2.97628         3.52123
C           8.87628        -2.52784         3.00159
C           9.76429        -3.16262         3.73714
C          10.93022        -2.92094         3.45710
C          11.05360        -3.77690         4.44893
C          12.36736        -3.87158         4.55864
C          12.59400        -4.99539         5.86082
C          10.92534        -4.85515         5.69833
C           8.57625        -4.23272         4.97709
C           6.68846        -3.84740         4.53062
C           4.52029        -3.50919         4.13872
C           2.79888        -2.85604         3.38190
C           1.32204        -1.78826         2.14462
H           2.72306         0.63275        -0.66068
H           2.78292        -1.37231         1.66264
H           4.95522        -0.20236         0.30698
H           4.58599        -2.16100         2.57653
H           7.10095        -1.14376         1.39782
H           9.15223        -1.87248         2.24221
H           9.84831        -4.01501         4.72483
H          11.63909        -2.49096         2.95886
H           9.73743        -4.72981         5.55310
H          13.36801        -3.60848         4.25377
H          13.07019        -5.73659         6.71969
H          12.61451        -4.80550         5.64080
H           5.62205        -3.17649         3.75321
H           4.62308        -4.45527         5.23498
H           2.26787        -3.76063         4.43007
H           0.11788        -1.06906         1.31126

