%chk=C[C]1SC2dCCdCCdS2[C]C2dCN2S1.chk
%NProcShared=20
# opt freq b3lyp/6-31g(2df,p)

Title Card Required 

0  2
C           0.73676        -0.22633         0.07744
C           2.18443        -0.14506        -0.23058
S           2.23529         1.11425        -1.42159
C           3.86287         1.53436        -1.09883
C           4.78458         1.40034        -2.09127
C           4.37162         2.31473        -2.93717
C           4.92151         3.47386        -2.46839
C           5.22953         3.62824        -1.00305
S           4.28107         2.50443         0.34907
C           5.24799         1.02382         0.69366
C           5.60968        -0.18535         0.08880
C           5.69247        -1.46100        -0.25781
N           4.61253        -1.19360         0.45675
S           3.19576        -1.56276        -0.38275
H           0.40201         0.77186         0.40922
H           0.46299        -0.96426         0.81511
H           0.23280        -0.43617        -0.87744
H           5.86004         1.57053        -1.80657
H           3.86221         1.97386        -3.82754
H           5.41528         3.97834        -3.30005
H           6.04846         4.17178        -0.56293
H           6.04508        -1.74557        -1.24019

