%chk=C[C]qNdNrC1dCCdNNdCCdC1NON.chk
%NProcShared=20
# opt freq b3lyp/6-31g(2df,p)

Title Card Required 

0  2
C           1.03339        -0.11910         0.08148
C           2.51996        -0.14820        -0.15998
N           3.18232        -1.33511        -0.36058
N           2.67061        -2.34431         0.15637
C           3.07059         0.99582        -0.89965
C           4.29880         1.46384        -0.59320
C           4.82277         2.63002        -1.34338
N           4.38373         3.85057        -1.31341
N           3.38172         4.11487        -0.36233
C           2.19299         3.70105        -0.67065
C           1.80747         2.88872        -1.84772
C           2.26471         1.63192        -1.97483
N           1.95360         0.84867        -3.06554
O           2.50658        -0.38288        -3.27624
N           1.93999        -0.92578        -4.48164
H           0.70401        -0.88650         0.78593
H           0.49858        -0.27706        -0.86147
H           0.72506         0.85010         0.49078
H           3.14811        -3.20503        -0.13738
H           4.94025         1.04274         0.16966
H           5.64759         2.39401        -2.03634
H           1.36393         3.94022         0.01644
H           1.17153         3.36769        -2.57937
H           1.38370         1.20776        -3.81836
H           2.32232        -1.87207        -4.43758
H           2.51228        -0.44990        -5.17536

