%chk=CC1CdCCdc2cqdNrc2dC1O.chk
%NProcShared=20
# opt freq b3lyp/6-31g(2df,p)

Title Card Required 

0  1
C           1.01557         0.10175         0.05140
C           2.54016         0.08339         0.09608
C           3.02513         1.32687        -0.59301
C           3.77718         1.48732        -1.68650
C           4.36830         0.47532        -2.54828
C           4.37264        -0.86609        -2.54492
C           4.14199        -2.53471        -2.19386
N           4.73449        -3.23019        -3.06370
C           3.67403        -1.43849        -1.50588
C           2.94785        -1.25723        -0.42791
O           2.45543        -2.32116         0.31988
H           0.61122         1.05127         0.40744
H           0.59726        -0.69905         0.66915
H           0.66038        -0.05724        -0.97699
H           2.92919         0.13924         1.11957
H           2.68158         2.23852        -0.09507
H           3.97640         2.52401        -1.97810
H           4.92874         0.94860        -3.35673
H           4.58914        -4.22832        -2.84547
H           2.66660        -3.16604        -0.11018

