%chk=Cc1cc2cc3cccc-3ccccc1-2.chk
%NProcShared=20
# opt freq b3lyp/6-31g(2df,p)

Title Card Required 

0  1
C           0.87490        -0.04895         0.03528
C           2.29550         0.35864        -0.20043
C           2.77454         1.32877        -1.11996
C           4.05630         1.06325        -0.80061
C           5.26860         1.73796        -1.47174
C           6.62293         1.69654        -1.50956
C           7.44372         2.59972        -2.35822
C           8.74004         2.32570        -2.11532
C           8.82622         1.25038        -1.15836
C           7.60334         0.82358        -0.81718
C           7.41512        -0.24248         0.13728
C           6.21104        -0.75051         0.14776
C           5.39903        -1.42930         1.08834
C           4.10057        -1.10721         0.98443
C           3.55497         0.01488         0.10885
H           0.24084         0.58516        -0.58747
H           0.60813         0.04204         1.09087
H           0.72280        -1.10453        -0.21153
H           2.27856         1.96843        -1.83155
H           4.85046         2.47767        -2.16682
H           7.10484         3.35794        -3.05195
H           9.61658         2.79208        -2.54291
H           9.74552         0.83094        -0.78277
H           8.18314        -0.50526         0.84964
H           5.64621        -0.54235        -0.74973
H           5.81553        -2.17023         1.75902
H           3.36186        -1.68140         1.55109

