%chk=Cc1ccc2cqccn[nH]1rCdCCdCNdCN1Nd[C]NC1dC2.chk
%NProcShared=20
# opt freq b3lyp/6-31g(2df,p)

Title Card Required 

0  2
C           1.12918         0.01708         0.06746
C           3.04533         0.12042         0.24370
C           3.75735         0.89659         1.54963
C           5.49164         1.32954         2.56966
C           6.83162         1.93123         3.91563
C           7.00013         1.39353         2.23891
C           7.53611         0.77936         1.11711
C           6.84799        -0.10518        -0.11616
N           5.86588        -0.70042        -0.95865
N           4.04896        -0.62340        -0.85802
C           7.86798         2.35579         2.90040
C           9.14439         2.21752         3.06267
C           9.92634         3.06196         3.83445
C          11.17870         2.86690         3.98381
N          11.77573         3.67611         4.70304
C          12.89520         3.44600         5.12051
N          12.17790         3.98590         6.03134
N          13.83201         4.85501         6.17748
C          13.76686         4.61211         7.26979
N          11.86723         3.87958         7.25060
C          10.26548         3.40241         6.12698
C           8.50003         2.59548         5.26349
H           0.63522         0.59223         0.90361
H           0.63992        -0.99415         0.16470
H           0.63978         0.46331        -0.84267
H           2.73217         1.27347         1.91373
H           5.10492         0.72768         1.18703
H           8.59793         0.69989         1.07377
H           5.87568         0.05411         0.11484
H           3.20438        -1.08926        -1.53167
H           7.53128         3.36020         3.47737
H           9.56481         1.57356         2.41075
H           9.51801         3.87409         4.56644
H          11.69491         2.26670         3.40849
H          13.77599         3.13956         4.60478
H          13.05899         3.90974         8.04110
H           7.06890         2.87644         5.06645

