%chk=Cc1csc2cqcnc3cqcnc4c1dC4rCd3rC2.chk
%NProcShared=20
# opt freq b3lyp/6-31g(2df,p)

Title Card Required 

0  1
C           4.44040         2.22096        -0.47734
C           7.04232         3.63084        -0.85164
C           5.06928         2.57809        -0.57227
S           5.54526         0.82330        -0.12189
C           5.96303         2.46788        -0.53500
C           7.43820         2.33428        -0.50263
C           8.36912         4.18142        -0.93753
N           9.20494         3.38756        -0.78370
C           8.57902         4.99070        -1.14611
C          10.98465         4.36066        -0.98199
C          11.23319         6.16661        -1.49693
N          13.09314         6.13596        -1.48129
C          11.73003         6.19076        -1.45160
C           9.74029         4.66459        -1.15446
C          12.21295         5.09376        -1.22612
C           9.58887         6.14435        -1.46237
C           5.63485         3.90804        -0.91690
H           2.90862         0.87079        -0.13420
H           2.63204         1.23360        -0.65008
H           2.63213         1.43597         0.14603
H           3.15636         2.42074        -0.52744
H           7.25536         4.93368        -1.18289
H          11.37330         7.44651        -1.80523
H          14.20701         5.90236        -1.41530
H           8.62646         6.90241        -1.66609
H           4.64448         4.17468        -1.87818
H           4.45368         4.71714        -0.53321

