%chk=CC1dNCdCNd[SH]COCqNrC1dO.chk
%NProcShared=20
# opt freq b3lyp/6-31g(2df,p)

Title Card Required 

0  1
C           2.26957         0.02796        -0.06060
C           4.46651         0.03145         0.21721
N           3.48358        -0.33114         1.14550
C           4.42000        -0.55915         1.86539
C           5.20502        -0.82230         2.77834
N           6.46362        -0.88726         2.76515
S           7.05723        -1.11219         4.03622
C           8.33291        -0.93128         2.97203
O           9.23591        -1.10996         3.82976
C           8.72069        -0.50659         2.02703
N          10.32110        -0.80922         3.39291
C           6.65452        -0.12571         0.86022
O           6.42994         0.13242        -0.44279
H           1.17433        -0.25250         0.85179
H           1.20953        -0.66422        -0.74798
H           1.19972         0.94749        -0.28676
H           5.24575        -0.55748         1.35942
H           4.54157        -0.99342         3.47544
H           7.16218        -2.38288         3.86724
H           9.13730         0.43397         3.14377
H           9.23083        -2.02630         2.38878
H          10.08113        -0.55673         1.86178
H          10.45749        -1.39133         4.60942
H          11.32848        -0.56347         4.15060

