%chk=CC1dCNdCCdCCdCC2dCCdCS12S.chk
%NProcShared=20
# opt freq b3lyp/6-31g(2df,p)

Title Card Required 

0  1
C           4.04150        -1.03494         0.90258
C           5.97382        -1.65410         1.79133
C           4.50588        -0.84347         1.89264
N           5.02645         0.45564         1.73563
C           5.49159         0.23945         2.90296
C           6.89927         0.20812         2.58778
C           7.40110        -0.01732         3.76921
C           8.76678         0.30849         3.62804
C           9.26051        -0.22132         4.74703
C          10.14250        -0.84142         4.00440
C          11.40987        -0.00329         3.92611
C          12.38151        -0.99246         3.85713
C          10.84626        -1.73009         3.49143
S           8.53612        -1.91796         2.74462
S          10.27101        -3.70828         3.82898
H           2.94762        -0.25292         0.04302
H           2.73636        -0.05200         1.12663
H           2.47539        -1.22674         0.74237
H           3.18794        -0.47053         2.46929
H           4.88529        -0.59439         3.58508
H           7.38854        -0.06833         1.54146
H           6.96839        -0.79818         4.47708
H           9.45311        -0.01498         2.54771
H           9.08401        -0.98251         5.51299
H          11.70554         0.91999         3.45557
H          13.63370        -0.21687         4.02336
H          11.92732        -2.09736         4.53479
H          11.78300        -4.21659         4.67616

