%chk=CC1dCCdC2CNCCdCCdCCdCC2dNC1.chk
%NProcShared=20
# opt freq b3lyp/6-31g(2df,p)

Title Card Required 

0  1
C           0.97170        -0.00384        -0.08651
C           2.47842         0.04399        -0.08091
C           3.03421         1.23438        -0.08294
C           4.32351         1.62725        -0.09099
C           5.25901         0.81552        -0.09096
C           6.57357         1.41745        -0.09294
N           6.54143         3.28431        -0.02567
C           8.81508         3.64855         0.24407
C           7.34511         4.23165         0.19818
C           9.36451         4.09403         0.09876
C           8.39019         5.81629         0.00982
C           9.68449         6.67319        -0.08821
C           8.38977         5.01543        -0.50915
C           7.92127         2.85676        -0.45585
C           6.63215         0.78502        -0.13854
N           5.38227        -0.59709        -0.08053
C           3.37906        -1.16406        -0.10089
H           0.57935         1.01674        -0.08591
H           0.58979        -0.50912         0.79658
H           0.59029        -0.50745        -0.97130
H           2.43360         2.09952        -0.07938
H           4.65575         2.58702        -0.10484
H           7.43364         1.03596        -1.31081
H           7.41710         1.03757         1.12528
H           6.25156         3.04183         0.87757
H           8.97679         3.07978        -1.26514
H           8.85880         3.01182         1.10337
H           6.82455         5.26966        -0.06926
H          10.33002         5.05589        -0.07078
H           8.02123         7.33711        -0.07858
H          11.01707         7.26226        -0.08360
H           9.28210         6.73283        -0.19396
H           8.23875         1.24016        -0.09441
H           2.79749        -1.80944         0.77589
H           2.94026        -1.61847        -1.09282

