%chk=CC1dCdCCdCSCqSrC1d[SH]CSS.chk
%NProcShared=20
# opt freq b3lyp/6-31g(2df,p)

Title Card Required 

0  1
C           1.57019        -0.10041         0.24236
C           3.16409         0.40075         0.72975
C           3.19843         1.70890         0.55888
C           3.58195         2.68865         1.16352
C           4.07509         2.35623         2.45820
C           4.92540         3.12720         3.10063
S           5.85296         1.92858         3.92093
C           6.36798         1.31292         1.79964
S           8.07039         1.93848         3.17346
C           4.90015        -0.07201         1.17353
S           4.35595        -1.34976        -0.66179
C           4.26375        -3.35013        -1.30263
S           2.84091        -4.62258        -2.08439
S           4.06696        -6.35967        -2.92230
H           0.89481         0.75301         0.50875
H           1.06980        -0.94748         0.73425
H           1.26397        -0.14892        -0.84417
H           3.79189         3.56375         0.58461
H           4.15549         1.26376         2.74044
H           5.28265         3.99823         2.53072
H           6.46371         2.37889         1.45296
H           8.26470         2.41669         4.65426
H           3.02512        -1.24658        -0.93056
H           4.68606        -4.02607        -0.59406
H           4.59933        -3.16331        -2.33674
H           3.35183        -7.44950        -3.41419

