%chk=CC1dCCdCc2ccccc2NdCqOr[N]C2CCdC12.chk
%NProcShared=20
# opt freq b3lyp/6-31g(2df,p)

Title Card Required 

0  2
C           1.25185         0.83760         0.57353
C           2.59610         1.58464         0.99400
C           3.45318         1.32210        -0.01325
C           4.88889         1.19675         0.07674
C           5.65716         2.29914        -0.03179
C           7.07846         2.32572         0.33313
C           7.84481         1.59325        -0.58659
C           9.19801         1.41818        -0.38579
C           9.82018         2.07843         0.66726
C           9.08224         2.89954         1.53670
C           7.68681         3.00094         1.45500
N           7.04380         3.83309         2.47736
C           5.86214         3.54931         2.84692
O           5.24984         2.51337         2.35280
N           4.92904         4.20967         3.53074
C           3.41249         4.02447         3.22340
C           2.49778         2.84492         3.54615
C           1.65713         3.73093         2.25998
C           2.74825         3.25357         1.59916
H           1.49216        -0.12527         0.05101
H           0.67539         1.36873        -0.19763
H           0.58669         0.48178         1.37057
H           3.31079         2.18184        -0.67173
H           5.28699         0.20736         0.30310
H           5.19709         3.27248        -0.16399
H           7.36005         1.15654        -1.45779
H           9.75150         0.77973        -1.06324
H          10.88862         1.96312         0.81112
H           9.60167         3.47362         2.29975
H           4.62312         3.04852         1.85524
H           2.93138         4.78611         3.87916
H           1.91064         2.73618         4.45120
H           3.06844         1.91526         3.38371
H           0.73286         3.83041         1.70150

