%chk=CC1dCNdSqCSCCCqCrSrCdC1.chk
%NProcShared=20
# opt freq b3lyp/6-31g(2df,p)

Title Card Required 

0  1
C           1.05635        -0.03653        -0.06735
C           2.55114        -0.07931        -0.05747
C           3.29892         1.09243        -0.00861
N           4.63179         1.23439         0.06574
S           5.64095         0.09023        -0.27236
C           6.51653         0.19235         1.34811
S           7.45534         1.76469         1.37705
C           8.41226         1.61575         2.90532
C           9.25994         2.89477         3.01042
C          10.16267         2.91458         4.24823
C          11.17440         1.77446         4.24365
S          11.05809         4.51126         4.34468
C           4.60851        -1.34633         0.01245
C           3.22557        -1.28811        -0.01717
H           0.67893         0.99141        -0.07103
H           0.66578        -0.53132         0.82814
H           0.66931        -0.54154        -0.95772
H           2.78092         2.05121         0.02483
H           7.20234        -0.65979         1.40233
H           5.79939         0.13559         2.17485
H           9.04202         0.72559         2.83186
H           7.75340         1.51861         3.77441
H           8.58841         3.76515         3.04332
H           9.87763         3.00040         2.10677
H           9.54372         2.84878         5.14892
H          11.79915         1.79232         3.34330
H          10.66642         0.80553         4.27230
H          11.82496         1.81065         5.12293
H          11.73851         4.40175         3.19290
H           5.10518        -2.31177         0.04447
H           2.65918        -2.21915         0.00259

