%chk=CC1dNCdCCdCC2dCCdNCdCCqOrNNCqdCCdC1rCdNCdN2.chk
%NProcShared=20
# opt freq b3lyp/6-31g(2df,p)

Title Card Required 

0  1
C           3.37121        -0.86596        -0.57479
C           6.25864        -1.90093        -1.23228
N           4.15892        -1.51678        -0.94811
C           5.06299        -1.19228        -0.74664
C           5.39351        -2.87872        -1.71670
C           7.53179        -3.15964        -1.74888
C           9.28694        -4.58861        -2.09642
C          12.05144        -4.61818        -2.15221
C          10.07458        -4.25650        -2.49630
C          11.44212        -3.72605        -2.67695
N          12.62639        -4.73362        -3.44338
C          13.34515        -5.32780        -3.03865
C          14.09988        -5.96693        -3.66050
C          15.49438        -6.13255        -3.64768
O          16.09410        -6.11625        -2.15999
N          15.95943        -7.26210        -4.33879
N          17.18276        -7.30839        -4.33100
C          15.53568        -7.75300        -4.35746
C          13.16513        -7.00450        -4.05047
C          10.92337        -5.21084        -3.15494
C           8.89641        -3.28704        -2.20081
C          18.24633        -7.59489        -4.48461
N          17.86376        -8.29077        -4.74677
C          16.82632        -6.24732        -3.51691
N          14.73315        -5.12403        -2.68897
H           1.27606        -0.90718        -0.58596
H           1.55226         0.29205        -0.56721
H           1.55418        -0.29421         0.44351
H           5.34818        -0.40795        -0.29538
H           4.60938        -2.92712        -1.75258
H           7.95569        -1.34356        -0.82084
H           7.29778        -3.99350        -2.31273
H           9.42920        -5.16714        -3.21340
H          12.16095        -3.15021        -1.98158
H          14.32334        -5.98429        -3.58862
H          13.17356        -5.99742        -3.56954
H          15.95062        -5.18136        -4.12364
H          15.74406        -6.89452        -1.78937
H          15.71282        -7.07849        -5.43057
H          18.19091        -6.30282        -3.71683
H          14.93504        -8.12125        -4.72058
H          12.05902        -6.58658        -3.86304
H           7.66942        -2.08316        -1.31977
H          20.20461        -7.26334        -4.26657
H          18.91764        -6.76131        -3.93042

