%chk=CC1dCCdCC2dC3CdC3SCqNNrNdNNC2dC1.chk
%NProcShared=20
# opt freq b3lyp/6-31g(2df,p)

Title Card Required 

0  1
C           0.85125         0.00411         0.06545
C           2.34507         0.04396         0.03588
C           3.00831        -1.11966         0.06204
C           4.41522        -1.34546         0.08061
C           5.36773        -0.41474         0.08911
C           5.28120         1.06459         0.03317
C           6.46052         1.61676         0.05911
C           7.83258         1.50673         0.30446
C           7.31108         2.73459        -0.03503
S           6.86093         4.03435         1.06919
C           5.88729         5.55100         0.17165
N           6.47735         6.06250        -1.09148
N           7.76255         5.50241        -1.31555
N           4.37694         5.51578         0.10786
N           3.73686         4.51980        -0.37228
N           4.20540         3.36582         0.18929
C           4.04063         1.96409        -0.02708
C           2.81418         1.42334         0.00472
H           0.45849        -1.01495         0.07105
H           0.47354         0.51758        -0.82276
H           0.49415         0.51485         0.96603
H           2.43856        -2.05248         0.07636
H           4.70955        -2.40144         0.09024
H           6.37490        -0.84490         0.09428
H           8.42200         0.70144        -0.11548
H           6.15746         6.31689         0.92082
H           6.48837         7.09249        -1.12002
H           7.59655         4.50150        -1.45511
H           8.30585         5.53405        -0.44362
H           5.16560         3.51119         0.40224
H           2.00526         2.14927         0.09292

