%chk=CC1dCCdCCdCOCqdOrCNCdCCdC1CCO.chk
%NProcShared=20
# opt freq b3lyp/6-31g(2df,p)

Title Card Required 

0  1
C           2.53226        -0.42200        -0.05734
C           5.02969        -1.09832        -0.28791
C           3.31385        -1.29397        -0.35333
C           4.81317        -1.49815        -0.42252
C           5.37701        -2.63052        -0.80698
C           6.49179        -2.73566        -0.84178
C           7.48019        -3.71747        -1.17592
O           8.29169        -3.14916        -0.98385
C           9.09028        -4.76462        -1.53155
O           8.96762        -5.86268        -1.90442
C          11.09108        -3.60642        -1.13811
N          10.66331        -5.57134        -1.80440
C          12.64277        -4.79834        -1.54265
C          11.23554        -5.33780        -1.72550
C           9.60818        -3.40132        -1.06959
C           7.48346        -1.88028        -0.55341
C           5.54990         0.10712         0.12029
C           4.24134         2.29214         0.86012
O           3.06382         4.17053         1.49505
H           0.86902        -1.01272        -0.25783
H           1.00549         0.52710        -0.54077
H           1.00549         0.03662         0.90408
H           2.71075        -2.09143        -0.62400
H           6.29273        -0.79774        -0.18412
H           4.84095        -3.23984        -1.01387
H           7.49537        -0.94349        -0.23309
H           7.05390        -4.39382        -1.40562
H          11.62122        -4.29251        -0.33424
H          11.62133        -3.66088        -2.19404
H          10.96327        -6.71642        -2.19409
H          13.84175        -5.36856        -1.73651
H          12.37488        -7.00010        -2.29032
H          11.20797        -4.63504        -1.48894
H           3.89823         0.95010         0.80966
H           3.89782         1.19470         0.08965
H           4.19690         3.68512         0.39575
H           4.19630         3.11206         2.08338
H           2.30131         4.94811         0.94340

