%chk=CC1dC2NCdCCqdC1rCqCdSrdCS2.chk
%NProcShared=20
# opt freq b3lyp/6-31g(2df,p)

Title Card Required 

0  1
C           1.24486        -0.02058         0.02830
C           3.00631         0.53337        -0.36775
C           3.47018         1.73605        -1.22738
N           4.67203         1.14427        -0.80341
C           5.47783         1.79036        -1.26618
C           6.66139         1.71989        -1.21570
C           6.37965         0.70679        -0.49388
C           4.53354        -0.16584         0.12981
C           7.61706         2.08153        -1.47476
C           9.33333         1.69125        -1.19545
S           9.36156         0.32113        -0.21596
C           6.92875         3.38794        -2.40837
S           4.53732         3.43422        -2.44145
H           0.65643         0.74189        -0.51676
H           0.75337         0.04291         1.06473
H           0.75337        -0.98070        -0.36714
H           5.64105        -0.00242         0.01900
H           5.78734         2.49096        -1.76715
H           7.23320         0.84865        -0.59293
H           4.07717        -1.06755         0.77661
H          10.45849         2.01652        -1.42796
H           8.11669         3.91954        -2.78836

