%chk=CC1dCNdCCdCCqCrdNNdCCdCCdCCdC1.chk
%NProcShared=20
# opt freq b3lyp/6-31g(2df,p)

Title Card Required 

0  1
C           3.52046        -0.08101         0.69402
C           6.11699        -0.15635         1.37977
C           4.09196        -0.14068         1.23299
N           5.03529        -0.20138         1.77806
C           5.20592        -0.32530         2.89759
C           6.66832        -0.33466         2.98200
C           7.42690        -0.43494         3.88821
C           9.07872        -0.45079         4.03218
C          10.23159        -0.24088         2.13709
N           9.31746        -0.57493         5.15217
N          10.35066        -0.59280         5.31298
C          10.98949        -0.68341         6.13557
C          12.01473        -0.66879         5.96551
C          13.16878        -0.76326         6.85174
C          14.78024        -0.70636         6.41707
C          13.12932        -0.60705         5.32522
C          10.86008        -0.42256         3.71353
C           8.67652        -0.28438         2.55958
H           1.63398        -0.11262         0.97809
H           1.81703        -0.54112        -0.03248
H           1.81700         0.52667         0.08579
H           2.73537        -0.24317         2.15640
H           4.58271        -0.39383         3.51667
H           7.19167        -0.24192         2.14430
H           6.87653        -0.51311         4.59345
H           9.32009        -0.13104         1.14450
H          10.43710        -1.22990         2.05791
H          10.43714         0.74121         2.27637
H          11.10994        -0.77501         6.95901
H          13.46335        -0.48724         4.34020
H          13.32766        -0.88571         7.95760
H          15.99205        -0.65785         5.89762
H          14.44191        -0.76210         6.84639
H          12.36217        -0.49958         4.57238
H           7.86573        -0.12782         1.11524

