%chk=CC1dCC2dCCdCCqdOrCdCC2dCCdC1.chk
%NProcShared=20
# opt freq b3lyp/6-31g(2df,p)

Title Card Required 

0  1
C           0.85314         0.09709         0.06835
C           2.33768         0.12389         0.07128
C           2.81058        -1.07425         0.06890
C           4.04097        -1.67552         0.02236
C           3.73275        -2.91326         0.20300
C           3.26702        -3.98449        -0.57066
C           4.15030        -5.03669        -0.93013
C           3.73444        -5.66877         0.25677
O           2.46665        -5.99631         0.29892
C           5.18526        -4.84878         0.97948
C           6.02336        -3.39898         0.69644
C           5.44374        -1.60353         0.37111
C           5.69379        -0.15546         0.15534
C           4.56245         1.15635         0.06615
C           3.20033         1.23446         0.05775
H           0.45591        -0.94032         0.06723
H           0.49027         0.54995        -0.84721
H           0.48740         0.55333         0.97990
H           2.03448        -1.82357         0.06289
H           4.57305        -3.17343        -0.34157
H           2.26497        -4.00303        -0.08388
H           5.39357        -5.22653        -0.96130
H           5.41655        -6.07280         0.73024
H           7.01852        -3.32030         0.19283
H           6.60502         0.48322         0.12964
H           4.94184         2.20491         0.07574
H           2.59921         2.15553         0.05269

