%chk=CC1dCqN2CdC2SrCqdSrNdC1.chk
%NProcShared=20
# opt freq b3lyp/6-31g(2df,p)

Title Card Required 

0  1
C           1.07822         0.12323         0.05809
C           2.55794         0.09424         0.05777
C           3.43516        -0.92527         0.05965
N           3.11751        -2.22803         0.06242
C           2.18364        -3.09323         0.06219
C           3.42540        -3.61268         0.06770
S           5.09471        -3.70743         0.08407
C           4.82866        -0.27794         0.05729
S           6.40871        -0.83579         0.04450
N           4.64295         1.08497         0.06099
C           3.37777         1.28591         0.05811
H           0.63813        -0.87663         0.05948
H           0.70093         0.63452        -0.83257
H           0.70129         0.63680         0.94758
H           1.12334        -3.15843         0.05695
H           5.90710        -4.76494         0.05305
H           2.93242         2.28508         0.05592

