%chk=CC1dCCdCCdCd[SH]CdCCdC2CdCC2dC1.chk
%NProcShared=20
# opt freq b3lyp/6-31g(2df,p)

Title Card Required 

0  1
C           2.42732        -1.20856         0.42465
C           4.15657        -2.46909         1.25468
C           3.59902        -0.95988         1.31596
C           4.85628        -0.45225         1.26009
C           5.55906        -1.01886         2.25102
C           6.97782        -1.24436         2.13871
C           7.63556        -1.87729         3.07262
S           8.43273        -2.41404         4.34021
C           9.14500        -3.78348         3.70932
C           9.81253        -4.67457         4.42494
C           9.97425        -5.96023         3.21374
C           8.89649        -5.93870         3.94595
C           9.83294        -6.52806         5.53273
C           8.26923        -6.31462         4.73412
C           7.17243        -4.92268         3.33193
C           5.88918        -3.73797         2.26468
H           1.02173        -0.82552         0.94990
H           1.24936        -0.84386        -0.60989
H           1.53484         0.20054         0.22635
H           2.70960        -1.16186         2.02201
H           5.27344        -0.15643         0.30221
H           4.94102        -1.72226         2.90835
H           7.46892        -0.84220         1.26230
H           7.65596        -2.63218         5.36962
H           8.99250        -4.16170         2.64994
H           9.78236        -4.72219         5.59810
H           9.56792        -7.07664         3.10431
H          10.99126        -6.29202         6.63280
H           9.65064        -7.20677         5.18365
H           5.80260        -2.75005         1.05271

