%chk=CC1dCCdCc2ccccccnn2NdN1.chk
%NProcShared=20
# opt freq b3lyp/6-31g(2df,p)

Title Card Required 

0  1
C           1.60929         0.07934         0.15179
C           3.73213         0.04497        -0.01971
C           3.29332        -0.20033        -1.25904
C           4.53319        -0.29033        -1.71302
C           5.53864        -0.45227        -2.52967
C           7.41581        -0.46124        -2.57536
C           7.53168        -0.70372        -3.79772
C           8.80313        -0.74733        -4.02190
C           9.10738        -0.98204        -5.21966
C          10.14045        -0.80871        -4.36831
C          11.04772        -1.03806        -5.48718
C          12.12828        -0.87707        -4.66657
N          11.26783        -0.61135        -3.28171
N           9.24505        -0.34313        -1.95705
N           7.44273        -0.11657        -0.84246
N           5.76803         0.06401         0.06952
H           0.73719        -0.13386        -0.92343
H           0.73122         1.01510         0.35672
H           0.73118        -0.70793         0.69813
H           2.53006        -0.34818        -2.00528
H           5.37494        -0.20523        -1.28658
H           4.85793        -0.61097        -3.33136
H           6.87252        -0.84942        -4.53526
H           9.64156        -0.60140        -3.18258
H           8.93795        -1.18008        -6.20798
H          10.47103        -0.41631        -2.46400
H          11.23389        -1.26987        -6.65671
H          13.55300        -0.94182        -5.00080

