%chk=CC1dC2CdCC2dCCdCdCdCNdCNCNNNN1.chk
%NProcShared=20
# opt freq b3lyp/6-31g(2df,p)

Title Card Required 

0  1
C           3.11364         0.60601        -1.05359
C           5.21987         0.65430        -1.85922
C           4.16960        -0.56153        -0.87140
C           3.11619        -1.88344         0.16102
C           4.15251        -2.66876         0.48403
C           4.81442        -1.41423         0.20640
C           5.98131        -0.90388         0.24038
C           6.17599         0.53534         0.14422
C           7.29101         1.10225        -0.23333
C           8.32168         1.67658        -0.49702
C           9.45102         2.30433        -0.69027
N          10.26581         2.08360        -1.71947
C          11.34066         2.70890        -1.89494
N          12.29605         2.25818        -2.80297
C          13.38544         3.23648        -3.18820
N          13.25669         2.56516        -4.94536
N          11.28871         2.85669        -4.36478
N           9.27932         1.96954        -3.52576
N           7.15771         1.46121        -2.69630
H           1.98310        -0.34734        -0.38927
H           1.56794         0.45999        -1.26562
H           1.93186         0.79415         0.01656
H           1.98148        -2.71730         0.55670
H           4.49854        -3.68913         0.90805
H           6.76240        -1.55836         0.31405
H           5.23402         1.17868         0.06259
H           9.93103         2.85416         0.07200
H          11.83863         3.42307        -1.31244
H          11.89347         1.74599        -3.67141
H          14.25592         2.83092        -2.86722
H          13.29757         4.35787        -3.44465
H          13.34069         3.38167        -5.81546
H          12.82634         3.07155        -4.54988
H          10.35027         2.16838        -4.54445
H           6.46571         2.15917        -2.01456

