%chk=CCC1dCCdCCdCCdCCdCOCdCCdC1S.chk
%NProcShared=20
# opt freq b3lyp/6-31g(2df,p)

Title Card Required 

0  1
C           1.84136        -0.01344        -0.47533
C           3.84326        -0.07905        -1.84237
C           5.47776        -0.17777        -3.99946
C           4.93385        -0.09037        -2.07394
C           5.14577        -0.14961        -3.26139
C           6.92353        -0.14166        -3.15367
C           7.13787        -0.20917        -4.49232
C           8.35545        -0.25061        -4.82955
C           8.93768        -0.58006        -6.09788
C          10.01814         0.44121        -6.03782
C          10.33925        -0.32573        -7.19001
C          11.55797        -0.33701        -7.32254
O          11.69856        -0.41046        -8.49122
C          12.85620        -0.47027        -9.13000
C          10.88964        -0.42582        -9.29468
C           8.80596        -0.35532        -7.92788
C           6.97467        -0.26528        -6.16736
S           4.42020        -0.25616        -5.53075
H           0.85233         0.05706         0.97521
H           0.76308        -0.89091        -0.42348
H           0.76307         0.86477        -0.50890
H           3.27941        -0.63094        -0.15572
H           3.27932         0.63223        -0.21703
H           5.20004        -0.03073        -0.83198
H           4.03961        -0.17023        -3.68976
H           7.05736        -0.09989        -2.24795
H           5.92014        -0.26744        -5.57369
H           8.91650        -0.18807        -4.06432
H           7.83517        -0.36303        -7.14758
H          10.74403        -0.73331        -5.68861
H           9.56690        -0.41110        -8.72687
H          12.55619        -0.35275        -7.40002
H          14.34423        -0.41478        -9.17259
H          12.27518        -0.50687       -10.64049
H          10.33102        -0.43313        -9.23489
H           2.60598        -0.20699        -4.45794

