%chk=CCC1dCdC2CdCCdCCdCC2dCCdC1.chk
%NProcShared=20
# opt freq b3lyp/6-31g(2df,p)

Title Card Required 

0  1
C           1.00200         0.08506         0.01597
C           2.59263         0.16036         0.09862
C           3.66455         0.70349         1.42212
C           4.95354         0.40295         1.55931
C           6.27189         0.18629         1.87849
C           6.19606        -1.11716         2.20520
C           7.41368        -1.43696         2.23574
C           8.42589        -2.26100         2.44124
C           9.66184        -1.60081         2.26812
C           9.94691        -1.77135         3.59064
C           9.32650        -0.28639         3.54335
C           7.77670         0.86526         2.60027
C           6.98901         2.17028         2.10600
C           5.18829         2.80962         1.99271
C           3.78427         2.09180         2.11156
H           0.62229        -0.26243        -0.98229
H           0.55693         1.06820         0.16549
H           0.57774        -0.62436         0.73355
H           2.85314         0.75069        -0.79461
H           2.86262        -0.88285        -0.18539
H           5.44794        -1.79975         2.29681
H           8.02361        -0.73575         1.72602
H           8.01902        -3.13912         2.95396
H          10.43440        -0.43058         2.04544
H          10.04946        -3.14683         3.44614
H          10.70441        -0.64276         3.58179
H           6.11569         2.20424         1.08514
H           5.49872         3.95435         1.63766
H           2.57018         2.01492         2.28784

