%chk=CCC1CC2CdCqCdCCdC2CdCCqdNrNdOrO1.chk
%NProcShared=20
# opt freq b3lyp/6-31g(2df,p)

Title Card Required 

0  1
C           1.26655        -0.21015        -0.10662
C           2.81644        -0.23074        -0.31403
C           3.63386        -1.30882         0.46789
C           4.72444        -0.75028         1.28893
C           5.08320        -2.00713         2.20732
C           6.28811        -2.30855         1.42221
C           5.88847        -2.77932         0.20641
C           6.31131        -4.19764         0.23637
C           5.63215        -5.08936         1.00714
C           4.46053        -4.67155         1.72447
C           4.15054        -3.43992         2.25548
C           2.76529        -3.25765         2.68577
C           1.72976        -4.03680         2.29088
C           0.31267        -3.70094         2.53909
N          -0.10670        -2.50548         2.81857
N          -0.62171        -4.74687         2.42358
O          -1.78999        -4.44408         2.68569
O           4.40020        -2.47452        -0.23774
H           0.82246         0.59090        -0.71895
H           0.96393         0.02316         0.92602
H           0.77782        -1.14424        -0.39749
H           3.10786         0.76176         0.06181
H           3.02825        -0.27945        -1.37803
H           2.88965        -1.63924         1.18460
H           4.64598         0.20535         1.80384
H           5.46675        -0.48804         0.49009
H           5.26872        -1.68678         3.23495
H           7.14184        -1.63490         1.50968
H           7.32821        -4.48698        -0.02394
H           5.94039        -6.12879         1.07584
H           3.74256        -5.48996         1.67445
H           2.58379        -2.32186         3.19397
H           1.84770        -4.96239         1.73928
H           0.66123        -1.83913         2.83474

