%chk=CCC1CdCCdC2CdCCdCCdCdCC2dC1.chk
%NProcShared=20
# opt freq b3lyp/6-31g(2df,p)

Title Card Required 

0  1
C           1.03893         0.03249         0.06270
C           2.60006         0.08566         0.09883
C           3.29724         0.91388         1.25856
C           2.41148         2.13604         1.32794
C           2.75733         3.37301         1.20550
C           4.10048         3.79523         1.20647
C           5.30635         3.34021         1.07418
C           6.19237         4.17122         1.74996
C           6.26744         5.50613         1.66602
C           7.55471         5.87706         2.16672
C           8.13350         6.63764         1.25113
C           9.00801         5.61230         0.48562
C           8.52170         4.15491         0.39000
C           7.79128         2.74050         0.42315
C           6.03626         2.15019         0.74192
C           5.10078         1.04226         1.03487
H           0.67411        -0.51566        -0.81369
H           0.57639         1.02172        -0.04271
H           0.62977        -0.44053         0.96228
H           2.91037         0.53703        -0.84788
H           2.94452        -0.95210         0.11057
H           3.05073         0.40938         2.22064
H           1.32234         2.02860         1.43908
H           2.04063         4.18704         1.26238
H           4.03852         4.85494         1.36753
H           7.01079         3.64339         2.22225
H           5.57520         6.06361         1.05105
H           8.23662         5.03163         2.45201
H           7.51062         7.48885         0.91993
H           9.98581         6.23620         0.83394
H           8.26941         2.00298         1.09063
H           5.29188        -0.04285         1.17353

