%chk=CCC1dNC2dCCdCCdCCdCCdCC2dNS1.chk
%NProcShared=20
# opt freq b3lyp/6-31g(2df,p)

Title Card Required 

0  1
C           0.93220        -0.02524        -0.06486
C           2.45429        -0.03409        -0.04716
C           2.91039         0.53475         1.28395
N           2.77527         1.81154         1.42556
C           2.87059         2.28484         2.71350
C           2.13855         3.02867         3.51171
C           1.41684         3.82906         2.62174
C           0.86326         4.84606         3.24250
C           0.22917         5.73715         2.40450
C          -0.30716         6.65325         3.22798
C          -0.52649         7.75250         2.42308
C           0.68882         8.18713         2.92907
C           2.26350         6.91530         3.32111
C           3.09331         5.36452         3.38598
C           3.75375         3.28253         3.19416
N           4.08903         1.74142         3.71051
S           3.60058        -0.15909         2.71026
H           0.55314        -0.26785        -1.06007
H           0.54461         0.96024         0.22014
H           0.54763        -0.75781         0.64967
H           2.80557         0.69949        -0.79278
H           2.82724        -1.01677        -0.33076
H           2.39262         3.33323         4.63572
H           1.63613         3.77362         1.53580
H           1.25858         5.34494         4.29431
H           0.43958         5.91873         1.31356
H           0.27368         7.10728         4.33779
H          -0.74869         7.94178         1.33107
H          -0.01207         9.27495         3.46040
H           1.64647         7.96914         2.56788
H           3.74384         4.85944         4.29600

