%chk=CCC1dCCdc2ccccc2dCCdCCdCCdC1.chk
%NProcShared=20
# opt freq b3lyp/6-31g(2df,p)

Title Card Required 

0  1
C           0.19858         0.31648         0.47991
C           2.18454         0.29654         0.78838
C           2.78790        -0.68610         1.74705
C           3.92773        -0.19835         2.29633
C           4.76325        -0.96765         3.23814
C           6.12075        -1.11617         3.25832
C           6.68010        -1.56459         4.56213
C           7.97304        -1.34692         4.87016
C           8.92898        -0.94314         3.86055
C           8.55078        -0.75022         2.58871
C           7.13095        -0.72901         2.20324
C           6.93579        -0.39787         0.90751
C           5.73000        -0.48239         0.16053
C           5.41890         0.30570        -0.88776
C           4.06834         0.41993        -1.19349
C           2.98045         0.96418        -1.70303
C           1.76881         0.03387        -1.08890
C           1.71548        -0.74227         0.46424
H          -0.29908         0.51407        -0.52479
H          -0.18999         0.95878         1.24892
H          -0.22164        -0.83324         0.43848
H           2.61893         1.31763         0.75865
H           3.19842        -0.67594        -0.01859
H           4.44621         0.68717         1.90890
H           4.17424        -1.38676         4.05293
H           6.00537        -1.96889         5.31013
H           8.35965        -1.54770         5.86540
H           9.97851        -0.91280         4.13435
H           9.29419        -0.65525         1.80221
H           7.73969        -0.00065         0.29926
H           5.02750        -1.19674         0.59645
H           6.05147         0.95599        -1.43431
H           3.88538        -0.60118        -1.56028
H           3.07729         1.20412        -2.76438
H           0.94236         0.49610        -1.69876
H           1.02615        -1.01292         1.46211

