%chk=CCC1SCCdCdCqOrCdCCdCCdCC2dCNdC21.chk
%NProcShared=20
# opt freq b3lyp/6-31g(2df,p)

Title Card Required 

0  1
C           2.57368        -0.93794         0.40035
C           4.76337        -2.09051         0.72868
C           6.86321        -3.75107         1.27864
S           5.64132        -1.66604         1.05847
C           5.92574        -2.64051         2.58236
C           7.38043        -2.17974         2.45091
C           7.90811        -3.27259         2.97944
C           8.39041        -4.26472         3.62851
O           7.76843        -5.00374         4.57808
C           9.89767        -4.30527         3.53697
C          10.46277        -5.31018         4.18348
C          12.01896        -5.29206         4.02915
C          12.65590        -6.35305         4.73899
C          14.10628        -6.57624         4.00946
C          12.94348        -7.38161         3.79252
C          11.12045        -6.41852         2.68216
C          12.19231        -7.81602         3.11753
N          10.39709        -6.69699         2.48588
C           8.97678        -5.27545         1.97692
H           1.41086         0.23111        -0.30041
H           1.15644        -0.13315         0.99784
H           1.03577        -1.09802        -0.24501
H           3.93710        -0.54465         0.69797
H           3.82727        -1.05509        -0.26457
H           5.34486        -2.85089         1.25522
H           5.09668        -3.83101         1.89344
H           5.13776        -2.34158         3.11856
H           7.62992        -1.76996         1.40851
H           6.86457        -4.74694         4.79478
H          10.36029        -4.11913         2.37780
H          10.00011        -6.14521         4.68771
H          12.44815        -5.33584         2.69709
H          12.03387        -7.39955         5.14545
H          14.50128        -6.78320         2.95119
H          13.78844        -8.30124         5.09041
H          13.81490        -8.54253         3.79368

