%chk=CCCC1CdCCdCCdCCdS2CdCC2dCC1.chk
%NProcShared=20
# opt freq b3lyp/6-31g(2df,p)

Title Card Required 

0  1
C           1.07198        -0.04915         0.07092
C           2.74572         0.02574         0.08507
C           3.74919         0.36635         1.64367
C           5.74975         0.70321         2.13238
C           5.21250        -0.09105         3.23835
C           6.39768        -0.58766         3.46834
C           6.78354        -0.25873         4.76181
C           8.07041        -0.27681         4.98872
C           8.47253        -0.06288         6.31183
C           9.70528        -0.35883         6.60269
C          10.18677         0.15542         7.83955
S          11.54674         1.09327         7.35828
C          12.35670        -0.44147         6.82449
C          12.62364         0.38136         5.75086
C          10.99152         1.20934         5.16809
C           9.43203         1.57758         4.29906
C           7.59940         1.40953         2.98322
H           0.65600        -0.10414        -0.97152
H           0.60612         0.84395         0.49816
H           0.63471        -0.93525         0.56063
H           2.90933         0.85386        -0.59749
H           2.96119        -0.94419        -0.41212
H           3.22680        -0.63563         2.06796
H           2.99866         1.07633         2.04933
H           5.78579        -0.17400         1.30417
H           4.30681         0.11085         3.81604
H           7.15020        -0.55756         2.60974
H           6.06150         0.08463         5.47648
H           8.77431        -0.32832         4.12605
H           7.82465         0.22798         7.09769
H          10.38675        -0.54244         5.76866
H           9.66222         0.16234         8.79185
H          12.87563        -1.39891         7.39571
H          13.85477         0.37338         5.76840
H           9.77568         2.51595         4.99069
H           7.88058         1.41154         1.89830
H           7.05174         2.38395         2.80691

