%chk=CCCC1dCCdCC2dCqOrCqdC2rCdC1.chk
%NProcShared=20
# opt freq b3lyp/6-31g(2df,p)

Title Card Required 

0  1
C           1.33182         0.27108        -0.06162
C           3.51074         0.77207        -0.21135
C           5.49706         2.14892        -0.63766
C           7.89606         3.13548        -0.97916
C           6.00387         3.05427        -1.01025
C           7.10799         2.76739        -0.45124
C           6.89967         4.43883        -1.06632
C           8.67238         4.57399        -1.18248
C           9.65275         5.96781        -1.65220
O           8.70947         6.59498        -1.83327
C          11.14015         4.88279        -1.35043
C           9.69995         2.48056        -0.67827
C          11.90015         6.15046        -1.70514
C          10.24187         4.50740        -1.29747
H           0.70168        -0.85444         0.25473
H           0.66176         0.36421        -1.00481
H           0.66219         0.84098         0.69883
H           3.00502        -0.52662        -0.75118
H           3.00608        -0.05132         0.94162
H           3.83578         2.27329        -0.00967
H           3.81925         1.94905        -1.16703
H           4.77030         3.63853        -1.00719
H           7.62177         1.43755        -0.34536
H           6.58225         5.25310        -1.45919
H           7.93418         6.10273        -1.69246
H           9.67196         1.45680        -0.39753
H          12.49545         6.97196        -1.93826
H           8.85581         3.34618        -1.02423

