%chk=CCCqdOrC1dCCdCCdCdC1CdS.chk
%NProcShared=20
# opt freq b3lyp/6-31g(2df,p)

Title Card Required 

0  1
C           1.06457        -0.00074        -0.07370
C           2.59199         0.00311        -0.03763
C           3.17839         0.15546         1.38978
O           2.31884         0.25124         2.28729
C           4.67096         0.20598         1.86288
C           4.80411         0.34153         3.13296
C           6.16953         0.35742         3.29202
C           6.80369         0.46326         4.53588
C           8.17386         0.52291         4.22067
C           7.74393         0.32583         2.95778
C           6.18744         0.17771         1.59990
C           5.79527        -0.01621        -0.21874
S           6.34681        -0.18718        -1.82058
H           0.69483        -0.11028        -1.10013
H           0.67761         0.93648         0.33417
H           0.67761        -0.83076         0.52278
H           2.89744         0.85157        -0.65768
H           2.89744        -0.95710        -0.46465
H           4.09719         0.42144         3.88230
H           7.39353         0.20070         1.81428
H           6.25576         0.58896         5.45600
H           9.23984         0.40290         4.07052
H           4.61202        -0.05826        -0.61266

