%chk=CCCSC1CqC2dCCd[SH]2r[SH]1C.chk
%NProcShared=20
# opt freq b3lyp/6-31g(2df,p)

Title Card Required 

0  1
C           0.98808         0.06514         0.06986
C           2.51764         0.06955         0.17491
C           3.14499         0.29248        -1.19335
S           4.94500         0.26158        -1.30470
C           5.32897         0.49073        -2.99476
C           4.42122         0.30865        -4.19575
C           2.98449        -0.25208        -4.20004
C           2.65138        -1.53667        -4.44527
C           1.24588        -1.38676        -4.06940
S           1.35226         0.35041        -4.06595
S           4.79413         2.01702        -3.75811
C           5.93050         2.60647        -4.94324
H           0.54139        -0.10035         1.05487
H           0.62988        -0.73056        -0.59489
H           0.60849         1.01724        -0.31778
H           2.83623        -0.89839         0.57648
H           2.82853         0.85437         0.86926
H           2.81736         1.25850        -1.58345
H           2.78923        -0.53610        -1.79740
H           6.37058         0.23631        -3.17352
H           4.93674        -0.06067        -5.08048
H           3.29821        -2.38644        -4.68463
H           0.55061        -2.22405        -3.93706
H           1.31531         0.73558        -2.80705
H           3.70492         2.68450        -3.34693
H           6.60247         1.82218        -5.29824
H           6.51696         3.39733        -4.46922
H           5.37945         3.03040        -5.78590

