%chk=CCdC1CdCCdCCdCSCqdSrCdC1.chk
%NProcShared=20
# opt freq b3lyp/6-31g(2df,p)

Title Card Required 

0  1
C           1.33024         0.29538         0.17401
C           3.21221         0.91893         0.71156
C           4.37525         2.04963         1.70977
C           4.83663         0.93863         0.72769
C           5.75407         1.56439         1.25943
C           7.05140         1.66537         1.34622
C           7.71794         2.53953         2.06600
C           9.20206         2.42625         1.99423
C           9.84062         3.33212         2.73902
S          11.59221         3.41381         2.84729
C          10.23283         4.44163         3.76690
S          11.01800         5.85912         4.94428
C           8.17983         3.68737         3.16643
C           6.16289         3.14396         2.71213
H           0.74021        -0.63877        -0.62651
H           0.64854         1.06422        -0.32467
H           0.64855        -0.08024         1.01026
H           3.14720        -0.24568        -0.28918
H           5.27861         0.20931         0.10071
H           5.70474         2.26640         1.81909
H           7.48201         1.00055         0.77986
H           7.01797         3.87996         3.13704
H           9.78505         1.80903         1.47339
H           8.87494         4.58340         3.78242
H           9.86997         4.29043         3.64801
H           4.82690         3.35901         2.80230

