%chk=CCNNC1dCCdCSCdCdC1CCdS.chk
%NProcShared=20
# opt freq b3lyp/6-31g(2df,p)

Title Card Required 

0  1
C           1.08593         0.07410         0.02284
C           2.61921         0.07695         0.00744
N           3.13618         0.59685        -1.28737
N           4.69335         0.66429        -1.39790
C           5.37242         1.15676        -2.69288
C           6.66612         1.02480        -2.33920
C           7.59944         1.42889        -3.27603
C           8.97068         1.39803        -3.26561
S           9.07299         2.28566        -5.48930
C           9.94380         1.85328        -4.40616
C           8.14779         1.92521        -4.71569
C           6.16568         1.68466        -4.10127
C           4.11336         1.70724        -4.06117
C           2.76711         2.11422        -5.07238
S           1.02435         2.13397        -5.10748
H           0.70224        -0.30842         0.97767
H           0.69279        -0.56159        -0.77559
H           0.69267         1.08593        -0.11409
H           2.95480        -0.94698         0.17596
H           2.95484         0.70405         0.83809
H           2.74201         1.53944        -1.37166
H           5.10578         0.29162        -0.53533
H           7.10503         0.66718        -1.45415
H           6.96324         2.12800        -4.93365
H           9.64065         1.07740        -2.47918
H          11.24021         1.68860        -4.00868
H           3.31067         2.19781        -3.09902
H           3.30943         0.69139        -3.67954
H           3.18596         2.47135        -5.95240

