%chk=CCOc1ccccncc2cc-2cnscccc1.chk
%NProcShared=20
# opt freq b3lyp/6-31g(2df,p)

Title Card Required 

0  1
C           1.15934        -0.01937        -0.08367
C           2.72205        -0.21322        -0.25611
O           2.93211        -1.51227        -1.42528
C           4.15594        -2.31305        -2.06538
C           4.77713        -3.05755        -3.40310
C           6.31689        -2.63386        -2.60213
C           7.13564        -3.40485        -3.24482
C           8.53599        -3.39185        -3.22089
N           8.96633        -4.25493        -4.03064
C          10.26762        -4.38914        -4.15723
C          10.62926        -5.28812        -4.99510
C          11.57790        -5.94777        -5.60985
C          10.25960        -6.29306        -5.93158
C           8.57288        -6.26206        -5.90296
N           7.70094        -6.98725        -6.58114
S           6.23182        -6.43997        -6.06796
C           4.79141        -7.01342        -6.68480
C           3.85891        -6.11792        -5.97799
C           3.97148        -4.62865        -4.70184
C           4.11486        -3.93370        -3.07602
H           0.80885         0.75581         0.63749
H           0.72150        -0.96152         0.24898
H           0.72255         0.24699        -1.04793
H           3.07232        -0.38969         0.79925
H           3.07424         0.82940        -0.51863
H           3.28683        -2.62095        -3.07245
H           6.70405        -1.89030        -1.84049
H           6.61624        -4.09014        -3.88276
H           9.11691        -2.71996        -2.60143
H          10.98113        -3.80966        -3.61729
H          12.65187        -5.82427        -5.49477
H           8.07207        -5.52059        -5.21188
H           4.85852        -7.96879        -7.47294
H           2.79663        -6.54962        -6.23625
H           3.44431        -5.65934        -4.69075
H           4.43731        -2.50171        -2.12750

