%chk=CCqdOrC1CqdOrCdNCdNNdCCdCqCrCqOrdCC1C.chk
%NProcShared=20
# opt freq b3lyp/6-31g(2df,p)

Title Card Required 

0  1
C           1.34134        -0.07707         0.14532
C           3.31221        -0.34044         0.48352
O           3.33770        -0.04096        -0.87201
C           4.90932        -0.67402         1.96344
C           5.31404         0.12160         0.89291
O           5.41344        -0.03841        -0.28184
C           6.12902         0.30457         2.00800
N           7.34535         0.13422         1.74391
C           8.19088         0.21829         2.82915
N           9.42649         0.09997         2.48970
N          10.15812         0.62001         3.54765
C          11.43035         0.48821         3.38080
C          12.21836         0.68336         4.78744
C          12.96814        -0.27231         4.28818
C          14.30565        -0.15059         3.09655
C          11.13949        -1.11487         4.70690
O          12.81653        -0.99944         5.86533
C           9.11718        -1.28697         4.14322
C           6.83905        -1.25750         3.25321
C           4.52086        -1.34777         3.04914
H           0.81282         0.00575        -1.02511
H           0.76052         0.83175         0.49913
H           0.72675        -0.94354         0.42146
H           3.80857         0.38927         2.08127
H           5.64622         0.17251         3.25301
H           7.83321         0.08872         4.01399
H          11.90081        -0.12165         2.53523
H          11.86894         0.18984         5.96671
H          13.62416        -0.12865         2.29468
H          14.98254        -1.02620         2.90290
H          14.99865         0.73679         2.94803
H          13.33220        -0.41055         6.97418
H          10.77011        -1.35957         4.02800
H           5.89093        -2.06658         2.80689
H           3.10695        -0.72150         2.68741
H           3.03383        -1.68810         3.24837
H           3.23562        -1.65323         2.15836

