%chk=CCqOrNOC1dCCdCCdNCdCCdCN1.chk
%NProcShared=20
# opt freq b3lyp/6-31g(2df,p)

Title Card Required 

0  1
C           0.96262        -0.05043         0.03913
C           2.53839        -0.04474        -0.00099
O           2.93639        -1.38906        -0.12412
N           3.24661         0.92209        -1.27740
O           5.10649         1.46024        -1.95620
C           6.54598         2.17163        -3.37120
C           6.63910         1.50347        -2.04671
C           7.43732         2.20178        -2.82015
C           8.69391         2.16427        -2.79585
C           9.58706         3.05140        -3.75711
N          10.76906         2.98324        -3.45120
C          10.13770         4.44254        -4.20185
C          11.48499         3.79926        -4.44025
C          11.95089         4.18482        -5.87098
C          10.43225         3.17324        -5.45957
N           8.23419         2.72807        -4.65642
H           0.57486        -0.68021         0.85358
H           0.56970        -0.45048        -0.89403
H           0.57160         0.95421         0.18113
H           2.82714         0.33527         0.98427
H           2.60566        -1.72416        -0.97399
H           2.66715         1.76171        -0.95088
H           7.00297         0.94319        -1.23391
H           7.55399         3.09115        -3.47741
H           9.18113         1.64107        -2.17354
H           8.86759         3.93724        -5.13487
H          10.31812         4.73667        -5.77126
H          12.92851         3.34402        -4.33025
H          12.78175         5.17484        -6.76217
H          12.11809         3.90536        -5.59768
H           6.86592         3.29622        -4.51821

