%chk=Cd[SH]CCCC1dCCqdCrCdNCdNNdN1.chk
%NProcShared=20
# opt freq b3lyp/6-31g(2df,p)

Title Card Required 

0  1
C           1.10529        -0.08272        -0.00564
S           2.90556        -0.01836        -0.11820
C           3.46752        -1.64308         0.73760
C           5.16259        -1.60182         0.73477
C           6.28068        -2.80448         1.46641
C           8.11732        -3.31612         2.15723
C           7.39178        -4.42882         1.77321
C           8.76468        -4.23113         1.11923
C           9.48888        -2.75375         0.65961
C           9.23929        -5.63270         2.26886
N          10.42453        -5.88179         2.49681
C          11.51648        -6.35454         2.93165
N          12.30183        -5.39668         2.58589
N          11.24547        -4.08092         1.89315
N           9.83653        -3.48831         2.63860
H           0.52985         0.78576        -0.39072
H           0.53034        -0.93168         0.38759
H           3.16302         0.93940         0.75151
H           3.01390        -2.42979         0.11342
H           2.99817        -1.65883         1.72967
H           5.33697        -0.69380         1.29259
H           5.35118        -1.49672        -0.34591
H           5.69109        -3.67584         0.81028
H           5.63287        -3.00534         2.35367
H           7.02916        -5.25297         2.41084
H           9.00748        -1.65778         0.66625
H          10.59385        -2.41513         0.94740
H           8.53167        -6.25980         2.84903
H          11.49481        -7.36659         3.41125

