%chk=CdC1CC2dCdCdC2SCdCSCdCS1.chk
%NProcShared=20
# opt freq b3lyp/6-31g(2df,p)

Title Card Required 

0  1
C           0.93758        -0.56981        -0.44701
C           2.19141        -1.08671        -0.65814
C           2.99420         0.34276         0.09314
C           4.42125         0.63937         0.37806
C           5.19779         1.47301         0.97453
C           6.22066         0.97029         0.60239
C           5.89949        -0.01195        -0.11252
S           6.53528        -1.26868        -1.05968
C           5.49357        -2.33034        -1.88144
C           4.99813        -3.27740        -2.68449
S           5.19472        -4.54946        -3.87265
C           3.15398        -4.64002        -4.25448
C           2.47239        -4.32914        -3.06392
S           2.08193        -2.33241        -2.36091
H           0.76445         0.33631         0.16943
H           0.02283        -0.93563        -0.85990
H           2.61635         0.39861         1.16556
H           2.57315         1.35834        -0.14969
H           6.43000        -2.75957        -2.18124
H           3.99137        -3.21597        -2.60860
H           2.86725        -5.71171        -4.62042
H           3.18933        -5.08505        -2.61391

