%chk=CdC1CdCCdCCdCCdCCdCqNrCdC1.chk
%NProcShared=20
# opt freq b3lyp/6-31g(2df,p)

Title Card Required 

0  1
C           2.72153         0.28270         0.37207
C           4.66947         0.86710         0.94284
C           3.17885         1.00531         1.07783
C           4.59251         1.12024         1.19008
C           5.32605         2.05972         2.10764
C           6.64137         2.36914         2.40984
C           7.01160         3.12581         3.14885
C           7.78443         2.58268         2.61840
C           9.05639         3.66182         3.67236
C          10.76599         2.89725         2.92563
C          10.73993         4.49231         4.48347
C          11.03877         3.49528         3.50970
N          13.12187         3.73480         3.74363
C           9.11934         2.40994         2.44968
C           7.14052         1.44580         1.50804
H           0.98736         0.52449         0.60823
H           1.22081        -0.43529        -0.32916
H           2.61620         1.59157         1.65041
H           5.85649         0.67054         0.75086
H           4.67768         2.52273         2.55985
H           8.15399         1.37018         1.43418
H           6.76748         3.64670         3.65759
H           9.09486         1.59385         1.65264
H           8.94017         4.44340         4.43570
H          11.82905         2.69655         2.72961
H          11.18115         5.26162         5.23482
H          13.29809         3.04997         3.07478
H          14.62288         3.72714         3.73615
H          10.26269         3.61753         3.62910
H           6.80775         0.31636         0.40495

