%chk=CdC1CN2SNCC2C2dSqCC2rC1dS.chk
%NProcShared=20
# opt freq b3lyp/6-31g(2df,p)

Title Card Required 

0  1
C           1.19654        -0.08175        -0.03790
C           2.55517        -0.07490         0.11486
C           3.42461        -1.15898         0.61440
N           3.26303        -1.49515         2.04381
S           3.67890        -3.10209         2.35216
N           4.62588        -2.80145         3.67180
C           5.00361        -1.36252         3.75342
C           3.78990        -0.57433         3.13438
C           3.86331         0.89036         2.79362
S           2.87475         1.95433         1.66357
C           4.35965         2.87835         2.18214
C           3.95660         2.26369         3.60658
C           3.27916         1.18578         0.14553
S           4.35555         1.79688        -0.95684
H           0.62323        -0.98525         0.10126
H           0.63753         0.83522        -0.19272
H           4.48133        -0.96375         0.38245
H           3.15499        -2.01999        -0.01095
H           4.01593        -3.02046         4.46082
H           5.93519        -1.20051         3.19850
H           5.21458        -1.15797         4.81259
H           3.07054        -0.56527         3.97012
H           4.31271         3.95404         2.01671
H           5.32943         2.51017         1.81314
H           2.94231         2.46032         4.02914
H           4.62486         2.56977         4.40214

