%chk=CdC1CdCCdCCdCCqdOrCCdCC1.chk
%NProcShared=20
# opt freq b3lyp/6-31g(2df,p)

Title Card Required 

0  1
C           2.47292        -0.14717        -0.28842
C           4.31399        -0.37932        -0.70681
C           3.16850        -1.33952        -0.82742
C           4.37555        -1.68568        -0.90057
C           5.06114        -2.59979        -1.47812
C           6.31520        -2.82609        -1.43191
C           6.72645        -3.75023        -2.18984
C           7.78047        -3.89333        -1.32802
C           8.88258        -4.72936        -2.27898
O           8.61739        -5.66692        -3.20674
C          10.50834        -3.58087        -1.71547
C           9.44298        -3.79784        -2.78561
C           8.32622        -2.21473        -2.27710
C           6.54799        -0.98488        -1.34817
H           0.98959        -0.69375        -0.47875
H           1.12706         0.54126         0.21083
H           2.48685        -2.04175        -1.25701
H           5.31491        -1.52340        -0.44286
H           4.49246        -3.23800        -1.92000
H           7.42418        -2.12907        -0.99920
H           6.62306        -4.57158        -2.69947
H           8.60230        -2.72639        -0.67862
H          11.21163        -4.37835        -1.46318
H          11.23318        -3.42145        -2.94164
H          10.25694        -5.27569        -3.14973
H           9.51120        -3.28969        -2.82652
H           5.85756         0.16274        -0.84588
H           6.05784        -0.40167         0.07400

