%chk=CdC1SC2dCCdCS[SH]SCdC12.chk
%NProcShared=20
# opt freq b3lyp/6-31g(2df,p)

Title Card Required 

0  2
C           1.61701        -0.63888        -0.02534
C           2.97101        -0.69299        -0.14432
S           3.84633         0.78770         0.22133
C           4.89662        -0.09789        -0.75541
C           5.84988         0.31006        -1.59119
C           6.25022        -0.66603        -2.49470
C           7.36291        -0.70008        -3.26393
S           7.43845        -2.10646        -4.23461
S           8.25272        -3.25887        -2.82493
S           6.92544        -3.17037        -0.93092
C           4.99701        -2.67822        -0.63782
C           4.32876        -1.41370        -0.48447
H           1.15388         0.35290         0.18420
H           0.84008        -1.38252        -0.15630
H           6.13064         1.34483        -1.68202
H           5.60481        -1.53269        -2.59073
H           8.12671         0.04057        -3.18175
H           9.36874        -2.47558        -2.76385
H           4.49426        -3.55692        -0.23586

