%chk=CdC1NdNCdCCdCCdCCqdOrNdCqNrC1dO.chk
%NProcShared=20
# opt freq b3lyp/6-31g(2df,p)

Title Card Required 

0  1
C           3.06724        -0.45883        -0.08049
C           5.05311        -0.98089        -0.26528
N           3.30895        -1.46166        -0.43544
N           4.39315        -1.86378        -0.57778
C           5.17778        -2.82908        -0.91944
C           6.78144        -2.99146        -0.97692
C           7.09667        -4.04998        -1.35158
C           8.27945        -4.02754        -1.34364
C           8.85053        -5.43185        -1.84070
C           9.85753        -4.77050        -1.60661
C          10.50713        -5.94836        -2.02352
O          10.76391        -7.05522        -2.41529
N          10.84763        -4.70820        -1.58456
C           9.74821        -3.07147        -1.00524
N          11.70162        -4.47753        -1.50291
C           7.50365        -1.78710        -0.55063
O           6.56670        -0.78767        -0.19688
H           1.35738        -0.75185        -0.18421
H           1.55000         0.31956         0.19502
H           4.41109        -3.41511        -1.12687
H           8.48908        -2.07342        -0.65198
H           6.51960        -4.70329        -1.58282
H           8.54018        -3.06617        -1.00336
H           8.32740        -6.17748        -2.10461
H          11.01384        -3.48126        -1.15028
H          12.72158        -5.69056        -1.93227
H          13.12688        -5.23204        -1.76998

