%chk=CdC1CdCCdCCqdCOCrSCqdOrCdNC1.chk
%NProcShared=20
# opt freq b3lyp/6-31g(2df,p)

Title Card Required 

0  1
C           2.15619        -0.23668        -0.04445
C           3.82301        -0.54279        -0.03629
C           3.16314        -1.29515         1.04988
C           4.29719        -1.24391         1.57473
C           5.05847        -2.09020         2.21444
C           6.32992        -1.80046         2.37318
C           7.13955        -2.68284         3.13330
C           6.62880        -3.72225         3.76887
O           5.31778        -3.81722         3.77137
C           4.60202        -4.59102         4.62565
S           8.86879        -2.09210         3.52984
C           9.25900        -3.77814         3.57443
O           9.04502        -4.51275         4.53862
C           8.94509        -2.78012         1.86388
N           7.77268        -1.85959         0.83244
C           5.94909        -1.04179         0.16732
H           1.05907        -0.66814         0.57810
H           1.16184         0.44039        -0.59170
H           2.40670        -1.74318         1.67733
H           4.83048        -0.33072         1.48018
H           4.43575        -2.76919         2.65105
H           6.82285        -0.82443         1.83295
H           7.15033        -4.37192         4.40933
H           3.54894        -4.38489         4.41669
H           4.86386        -4.29194         5.62726
H           4.86043        -5.60153         4.36176
H          10.44219        -2.95421         2.31557
H           5.56945        -0.82107        -0.92237
H           5.77238         0.33377         0.24735

