%chk=CdC1CdCCdCC2dCCdNCdCC2dC1.chk
%NProcShared=20
# opt freq b3lyp/6-31g(2df,p)

Title Card Required 

0  1
C           1.97507         0.04679         0.38779
C           3.51826        -0.13796         0.87970
C           3.25836        -1.47609         0.38413
C           4.34286        -1.83490        -0.28164
C           5.04830        -2.84686         0.34392
C           6.39479        -2.67898         0.26147
C           6.76209        -3.32339         1.44876
C           6.78115        -4.58379         0.90392
C           7.50038        -5.81303         1.31231
N           8.46627        -5.69839         2.13388
C           8.75812        -4.36538         2.59178
C           8.13852        -2.83393         2.57907
C           6.56988        -1.82647         2.05037
C           5.29290        -0.58820         1.56581
H           1.04234        -0.70315         0.39566
H           1.17595         0.84431        -0.13060
H           2.54140        -2.07417         0.93331
H           5.08969        -1.08245        -0.60804
H           4.62908        -3.35637         1.27539
H           7.06371        -1.79087        -0.04732
H           6.00960        -4.92334         0.25173
H           7.15024        -6.81963         0.90893
H           9.77211        -4.80144         3.07124
H           9.12616        -2.58968         3.04642
H           5.23860         0.40239         0.68163

