%chk=CdC1CqSCC2dCCNN2rdCNc2ccccc21.chk
%NProcShared=20
# opt freq b3lyp/6-31g(2df,p)

Title Card Required 

0  1
C           0.90114        -0.08707        -0.06065
C           2.25345        -0.10619        -0.05989
C           3.01714        -1.38189        -0.05772
S           2.09020        -2.84710        -0.04831
C           3.19480        -4.24846        -0.05678
C           2.40332        -5.53026        -0.05701
C           2.91002        -6.76137        -0.00677
C           1.78955        -7.74445        -0.09793
N           0.55124        -6.92178        -0.07716
N           1.02902        -5.60577        -0.11543
C           4.36564        -1.29640        -0.05903
N           5.07383        -0.10794        -0.05915
C           4.41879         1.14234        -0.06172
C           5.14044         2.34554        -0.06036
C           4.47176         3.57705        -0.06063
C           3.08380         3.62128        -0.06158
C           2.35990         2.43750        -0.06167
C           3.00267         1.19014        -0.06109
H           0.29792        -0.98624        -0.06076
H           0.30128         0.80861        -0.06133
H           3.82944        -4.21143         0.83348
H           3.82273        -4.20824        -0.95187
H           3.95656        -7.01208         0.05286
H           1.80335        -8.44788         0.73886
H           1.84477        -8.29744        -1.04065
H           0.09213        -7.07946         0.82386
H           0.45225        -4.77124        -0.22406
H           5.01607        -2.16406        -0.05828
H           6.08623        -0.13470        -0.06862
H           6.22666         2.34572        -0.05906
H           5.02833         4.50988        -0.06006
H           2.54808         4.56642        -0.06204
H           1.28028         2.52190        -0.06213

