%chk=CdC1CdCCdC2CC2dNNdNCdCqCCCrCdCCdN1.chk
%NProcShared=20
# opt freq b3lyp/6-31g(2df,p)

Title Card Required 

0  1
C           2.11062        -2.07823         1.10411
C           3.35435        -3.44508         1.84004
C           3.59568        -1.75554         0.94093
C           4.77212        -1.26505         0.68580
C           5.52691        -2.31465         1.24787
C           6.80762        -2.36482         1.26887
C           8.02909        -1.72724         0.96941
C           7.96500        -3.06442         1.64550
N           8.65344        -4.00124         2.15871
N           7.86621        -5.07833         2.73697
N           8.58493        -5.94078         3.20277
C           8.11292        -6.99228         3.76891
C           8.81105        -7.96748         4.29490
C          10.17003        -8.23321         4.43746
C          10.64897        -7.00796         3.77810
C          12.10002        -6.99629         3.77255
C           7.98991        -8.90318         4.79539
C           6.52363        -8.46551         4.55766
C           5.29577        -6.70655         3.60952
N           4.49156        -5.15469         2.76857
H           0.87300        -1.20562         0.64450
H           1.63196        -0.64780         0.34754
H           3.27376        -2.69926         1.51552
H           5.11644        -0.36258         0.19654
H           5.19573        -3.23250         1.74773
H           8.29793        -0.81706         1.48983
H           8.41184        -1.39992        -0.00807
H           7.09426        -7.01992         3.78343
H          10.42614        -9.14111         3.91173
H          10.42556        -8.29456         5.48481
H          10.26342        -6.12585         4.32745
H          10.26418        -6.98080         2.73899
H          12.45210        -7.02714         4.79666
H          12.44726        -6.09512         3.28773
H          12.45289        -7.86788         3.23450
H           7.11883        -8.38440         4.52469
H           7.71441        -9.53488         5.13472
H           5.32255        -8.17519         4.39912

