%chk=CdC1CdCC2dCCdCCqd[SH]CdCCdC2rC1CC.chk
%NProcShared=20
# opt freq b3lyp/6-31g(2df,p)

Title Card Required 

0  1
C           1.56746         0.15512        -0.09193
C           3.31432         0.13280        -0.13291
C           3.58512         1.75338        -0.44588
C           4.94579         2.62110        -0.64740
C           6.13312         4.24633        -0.95857
C           6.21711         2.77098        -0.44125
C           7.29160         3.28813        -0.67266
C           8.47856         3.06656        -0.50756
C           7.56274         1.44871        -0.85600
S           9.41960         3.43503        -1.31864
C          10.33291         5.79176        -1.34542
C          11.67092         6.43554        -1.44714
C           9.68303         6.21031        -1.39048
C           7.87294         5.55882        -1.25140
C           5.38175         0.16175        -0.24392
C           3.71447        -1.30362         0.17454
C           3.29417        -3.29482         0.64535
H           0.65157         0.85770        -0.24902
H           0.68805        -0.85364         0.12286
H           2.60405         2.19014        -0.53328
H           5.44815         1.57156        -0.58518
H           6.52696         1.22746         0.12332
H           7.65456         4.11152        -0.94808
H           9.12621         2.14427        -0.31436
H          11.00308         3.91286        -1.83969
H          10.14652         7.51611        -1.69955
H          13.15855         6.27161        -1.42699
H          11.20485         7.06217        -1.58400
H           6.51543         5.52445        -1.25762
H           4.97441        -1.07382         0.16899
H           2.40201        -1.96619        -0.37798
H           2.41278        -1.65738         1.01819
H           3.64291        -3.95530        -0.14244
H           2.29252        -4.28882         0.86309
H           3.64291        -3.56707         1.64136

