%chk=CdC1CdCCq[SH]qCrNdNrdC1N.chk
%NProcShared=20
# opt freq b3lyp/6-31g(2df,p)

Title Card Required 

0  1
C           1.10268         0.02946         0.01158
C           2.44176        -0.01539         0.00027
C           3.29501         1.15466         0.00130
C           4.56673         0.71124        -0.01646
C           4.56229        -0.74456        -0.03627
S           5.90586        -1.78673         0.00653
C           5.89833        -2.75377        -1.45818
N           7.20065        -0.82520        -0.14512
N           8.26869        -1.44887         0.02068
C           3.29316        -1.20768        -0.00795
N           2.79422        -2.46651         0.02008
H           0.56749         0.97251         0.01782
H           0.49779        -0.86870         0.01281
H           2.95415         2.17706         0.02367
H           5.44709         1.33337        -0.00565
H           5.96492        -2.53203         1.12325
H           5.91473        -2.10913        -2.33783
H           5.00577        -3.37985        -1.46535
H           6.77651        -3.40419        -1.45128
H           9.09749        -0.84507        -0.05882
H           3.41322        -3.26273         0.05565
H           1.79435        -2.60933         0.04383

