%chk=CdC1CdCNdCSCdC1C1CdC1SS.chk
%NProcShared=20
# opt freq b3lyp/6-31g(2df,p)

Title Card Required 

0  1
C           1.66670        -0.07533         0.15842
C           3.09018         0.21519         0.12251
C           2.94559         1.32701         0.88348
C           3.93261         1.94922         1.37176
N           5.14782         2.17323         1.69443
C           6.12829         1.19715         1.31227
S           7.12087         2.63786         1.73052
C           6.29004         1.29398         0.25823
C           4.84642        -0.06151        -0.18687
C           3.83598        -1.44328        -0.92767
C           3.46508        -2.35611        -2.05672
C           2.69889        -1.29145        -2.40853
S           0.67179        -0.86310        -2.35114
S          -0.57148         0.13274        -3.91818
H           0.81273         0.68713         0.46681
H           0.90460        -0.82440        -0.12195
H           2.18131         1.83543         1.28136
H           4.39223         1.43550         0.63735
H           6.85278        -0.09239         0.41013
H           7.70984         1.28244         0.73081
H           2.89539        -1.93622        -0.31965
H           3.78689        -3.44083        -2.28778
H          -1.59582         1.02015        -3.46699

