%chk=CdC1CdCCdCCdCCqCrdCqNrCdC1.chk
%NProcShared=20
# opt freq b3lyp/6-31g(2df,p)

Title Card Required 

0  1
C           2.46113        -0.26249         0.14130
C           4.32608        -0.90930         0.31646
C           3.16369        -1.58270         0.49334
C           4.49185        -1.63614         0.50608
C           5.10346        -2.80236         0.82371
C           6.46236        -3.05054         0.89220
C           6.77163        -4.24036         1.21649
C           7.10056        -3.06178         0.90652
C           8.39131        -4.46449         1.27159
C           8.72886        -6.22566         1.75018
C          10.01250        -4.15080         1.17592
N          11.49388        -3.78611         1.08878
C           8.45483        -2.95301         0.87073
C           6.68424        -1.50011         0.46729
H           0.91839        -0.79736         0.28368
H           1.08339         0.63590        -0.10696
H           2.56637        -2.34325         0.70046
H           5.55799        -0.75368         0.25622
H           4.62538        -3.59945         1.04013
H           7.79045        -1.83604         0.56383
H           6.76362        -5.11375         1.44772
H           8.79042        -1.90399         0.58982
H           7.70305        -6.25288         1.75774
H           9.05267        -6.60449         2.77082
H           9.05267        -7.06728         1.05990
H          11.20910        -2.91075         0.85411
H          12.58648        -3.88549         1.11713
H           9.70869        -4.11424         1.18423
H           6.37896         0.02370         0.06152

