%chk=CdC1CdCCCCdNC2dNCqCdN1rSC2.chk
%NProcShared=20
# opt freq b3lyp/6-31g(2df,p)

Title Card Required 

0  1
C           2.87706         0.48891        -1.15502
C           4.45453         1.07220        -2.12498
C           3.32746         1.69942        -0.95692
C           4.48485         1.70107        -0.27965
C           5.14047         2.69641        -1.19509
C           6.85602         1.98208        -1.07668
C           7.72631         3.05420        -1.58816
N           8.97679         2.88854        -1.99386
C           9.64303         3.89470        -2.58645
N           9.15903         5.05774        -2.18368
C           8.85419         4.96795        -3.55635
C           7.26326         3.46637        -3.51993
N           5.82713         2.25605        -2.99954
S          11.15228         5.12016        -3.94217
C          10.82048         3.53951        -3.61973
H           1.45422         0.85366        -0.75883
H           1.81701        -0.22369        -0.32878
H           2.51526         2.26191        -1.51897
H           5.01296         0.57528        -0.15795
H           5.02506         3.71422        -0.97394
H           4.40456         2.67428        -2.52422
H           7.06838         1.02379        -1.67603
H           7.08415         1.99998        -0.04359
H           6.80928         3.93335        -1.88771
H           9.68653         6.22253        -3.48294
H           7.62857         4.59352        -4.36237
H          11.54192         2.97856        -3.09843
H          10.62341         3.24407        -4.65400

