%chk=CdC1CC2dCCdCCdCqCCrCqdOrNC12.chk
%NProcShared=20
# opt freq b3lyp/6-31g(2df,p)

Title Card Required 

0  1
C           1.26769        -0.29099        -0.21319
C           2.59482        -0.40223        -0.53695
C           3.49250         0.81273        -0.16715
C           4.54061         0.00420        -0.83456
C           5.68448         0.35338        -1.34933
C           6.47230        -0.77247        -1.11768
C           7.44939        -0.97703        -2.01454
C           8.03976        -2.25848        -2.16320
C           7.93819        -2.33569        -3.47857
C           9.10177        -1.36884        -4.30794
C           8.84760         0.08775        -3.99467
C           6.22944        -2.84689        -3.31846
O           6.27078        -4.01474        -3.80871
N           4.84666        -2.44469        -2.31157
C           4.02724        -1.47683        -0.84245
H           0.83393         0.70721         0.04558
H           0.53257        -1.06987        -0.07917
H           3.67715         1.06608         0.90907
H           3.25485         1.81155        -0.57242
H           5.96152         1.33894        -1.67552
H           6.22704        -1.67122        -0.58524
H           7.21477        -0.26122        -2.79343
H           7.56973        -3.11760        -1.65039
H           9.19911        -1.46058        -5.39965
H          10.16618        -1.50510        -3.95374
H           7.83303         0.20573        -4.38404
H           9.39972         0.93998        -4.36867
H           9.02084         0.18904        -2.91105
H           4.27311        -3.29617        -2.31684
H           4.21763        -2.06870         0.08714

