%chk=CdC1CdCC2dCCdC2CdCCdC1CSS.chk
%NProcShared=20
# opt freq b3lyp/6-31g(2df,p)

Title Card Required 

0  1
C           0.65276        -0.74463         0.40145
C           2.08221        -0.64185         0.21599
C           3.44538        -0.75435        -0.36211
C           4.74009        -0.65179        -0.66531
C           5.35114        -1.25234        -2.04879
C           6.74600        -1.26331        -2.17734
C           7.36922        -1.96009        -3.31819
C           4.48882        -1.96009        -3.31819
C           2.96882        -1.96009        -3.31819
C           1.69739        -2.00590        -3.37077
C           1.24195        -0.95041        -1.95323
C           1.75362         0.27340        -0.87163
C           1.94330         1.09910         0.95548
S           3.46095         1.63625         2.43142
S           2.51363         2.56940         4.43346
H          -0.12759        -0.58115        -0.40568
H           0.12738         0.07214         1.01468
H           3.17592        -1.14649        -1.23308
H           5.44896        -0.10446        -0.07144
H           7.33926        -0.82642        -1.36390
H           8.25272        -2.24835        -3.84768
H           3.05632        -1.21188        -2.65074
H           1.93218        -2.49108        -4.35602
H           0.33225        -1.04728        -2.58670
H           1.64116         0.40650         1.87180
H           1.40206         2.00906         1.06253
H           3.34988         3.16160         5.45130

