%chk=CdC[N]CdCCqdCNdSrCCCCS[CH]N.chk
%NProcShared=20
# opt freq b3lyp/6-31g(2df,p)

Title Card Required 

0  1
C           0.93065        -0.07624        -0.06726
C           2.25794        -0.31320        -0.12969
N           2.85722        -1.49007        -0.44009
C           4.22297        -1.41336        -0.41991
C           5.16811        -2.35116        -0.66734
C           6.65437        -2.21084        -0.63022
C           7.33676        -1.05890        -0.32595
N           6.94860         0.20656         0.00859
S           8.10938         1.15282         0.25996
C           7.41676        -3.52274        -0.97647
C           8.96462        -3.43052        -0.95174
C           9.72085        -4.71668        -1.29430
C          11.24459        -4.48715        -1.23857
S          12.07970        -6.03840        -1.73926
C          13.73790        -5.74024        -1.38570
N          14.63083        -6.76840        -1.84264
H           0.53573         0.89391         0.18860
H           0.26763        -0.89903        -0.28439
H           2.85738         0.58006         0.10591
H           4.68529        -0.45315        -0.16669
H           4.79422        -3.33640        -0.92754
H           8.41197        -1.20448        -0.36491
H           7.11237        -3.86583        -1.97627
H           7.11212        -4.31475        -0.27662
H           9.28194        -3.11795         0.05064
H           9.28072        -2.66285        -1.66876
H           9.43090        -5.04901        -2.29818
H           9.43930        -5.50454        -0.58528
H          11.55138        -4.19082        -0.22817
H          11.53837        -3.68757        -1.92873
H          14.03482        -5.09179        -0.56431
H          14.26025        -7.11030        -2.73333
H          14.46497        -7.57877        -1.24099

