%chk=CdCC1dCCdC2NCC1CCdCCdCS2.chk
%NProcShared=20
# opt freq b3lyp/6-31g(2df,p)

Title Card Required 

0  1
C           1.73506         0.07117         0.57010
C           3.29298         0.14535         0.94020
C           4.51091        -0.26280         2.44935
C           3.24058        -0.87988         2.67517
C           3.14337        -1.54107         3.85187
C           3.88878        -0.93261         4.76693
N           4.07240         0.57131         4.89046
C           4.79587         1.38116         3.92383
C           6.00418         0.07731         3.81750
C           7.53339        -0.32865         5.52863
C           8.10143        -1.21705         7.19501
C           7.26522        -0.96971         8.21952
C           6.40170        -1.84330         7.42898
C           5.65201        -1.30441         6.48020
S           4.91100        -2.24843         5.32800
H           1.09825         0.01482        -0.50239
H           0.74169        -0.04540         1.12116
H           3.48590        -0.01745        -0.16485
H           2.20529        -1.11052         2.18967
H           2.92336        -2.58377         3.64562
H           4.79547         0.68628         5.54426
H           5.20676         2.42802         3.75785
H           3.77950         1.77270         3.47244
H           6.63189         0.50579         3.06038
H           7.88589         0.53920         6.49228
H           8.83257        -0.32745         5.84536
H           8.63436        -2.18951         7.96240
H           7.30385         0.11245         8.48190
H           6.76810        -2.89281         7.23959
H           5.77479        -0.22364         6.38660

