%chk=CdCCNC1dCCdNCdCNdC2CqNrdC2N1.chk
%NProcShared=20
# opt freq b3lyp/6-31g(2df,p)

Title Card Required 

0  1
C           1.08660         0.04419         0.07629
C           2.45339         0.05513         0.04238
C           3.37716         0.48638        -1.29753
N           5.35638         0.56710        -1.54624
C           7.03348         0.92705        -2.67408
C           7.19692         0.53736        -1.45935
C           8.07240         0.83561        -2.37955
N           9.26750         0.65804        -1.82830
C          10.18331         0.97630        -2.80286
C          10.11403         1.56381        -4.63307
N          11.89669         1.58796        -4.71889
C          12.80010         1.16639        -3.40944
C          13.12551         1.56320        -4.64827
N          15.07402         1.64255        -4.89049
C          11.37793         1.29837        -3.84457
N           8.93429         1.22765        -3.62284
H           0.51014        -0.23967         0.95839
H           0.50205         0.32359        -0.79193
H           2.93820        -0.23876         0.95555
H           2.92585         1.47594        -1.45581
H           2.92591        -0.22526        -2.00326
H           5.12164         0.14949        -0.25101
H           7.22308         0.23895        -0.52894
H           7.75172         1.40974        -4.16467
H           9.89207         1.51017        -4.47001
H          10.40473         1.02941        -2.97953
H          16.21481         1.89991        -5.69032
H          16.14879         1.42820        -4.22456
H           7.28715         1.14739        -3.35212

