%chk=CdCC1dNNdC2NCNdCdC2CqCrdC1.chk
%NProcShared=20
# opt freq b3lyp/6-31g(2df,p)

Title Card Required 

0  1
C           1.06373        -0.01563         0.10333
C           2.40606         0.01918         0.12323
C           3.10800         1.25179         0.62401
N           2.66252         1.74448         1.72498
N           2.85629         3.01245         2.16121
C           3.70659         3.88113         1.72561
N           3.59882         5.13165         2.31662
C           4.37597         5.07153         3.51133
N           5.78083         5.03544         2.80972
C           5.78632         4.35849         1.84235
C           4.98643         3.67832         0.97488
C           5.08808         2.70148        -0.12128
C           6.06831         2.77428        -1.28731
C           4.21929         1.67051        -0.26688
H           0.52184        -0.89474        -0.23168
H           0.46620         0.83148         0.43656
H           2.99297        -0.82203        -0.21868
H           4.22522         5.85986         1.92348
H           4.28536         4.26878         4.26759
H           3.67941         5.83515         3.94172
H           6.74504         3.62546        -1.25831
H           5.53539         2.81345        -2.25692
H           6.67065         1.85334        -1.33693
H           4.34325         0.99227        -1.11713

