%chk=CdCC1dNCdCCdC2CdC2CCqNCrdC1.chk
%NProcShared=20
# opt freq b3lyp/6-31g(2df,p)

Title Card Required 

0  1
C           0.97610         0.01228         0.07216
C           2.32766        -0.01458         0.07872
C           3.21064         1.19570        -0.21718
N           4.84586         1.56813        -0.30823
C           5.18769         2.89229        -0.63197
C           6.45530         2.91743        -0.63811
C           7.18385         3.96776        -0.89491
C           8.42221         3.83091        -0.86145
C           9.48522         4.52572        -1.03132
C           9.38445         2.93178        -0.64162
C           8.37423         1.30840        -0.24473
C           6.59236         0.34155        -0.00835
N           8.16919        -0.71126         0.24906
C           9.60667        -1.94881         0.55162
C           4.85120         0.78029        -0.11560
H           0.40309        -0.88929         0.29258
H           0.39736         0.90327        -0.14568
H           2.85078        -0.91339         0.29847
H           4.48340         3.62795        -0.81183
H           6.86830         2.04255        -0.42422
H           6.66715         4.81354        -1.10169
H           9.62790         5.71787        -1.32279
H           8.09880         0.98590        -1.25203
H           8.09880         1.48704         0.79775
H           7.72890        -1.55676         0.45577
H          10.86341        -1.77744         0.50972
H           9.73631        -2.95716        -0.09569
H           9.73631        -2.54475         1.59115
H           3.54625         1.99133        -0.41169

