%chk=CdCCdCCqCSC[SH]qCrSrSSSCdS.chk
%NProcShared=20
# opt freq b3lyp/6-31g(2df,p)

Title Card Required 

0  1
C           1.13569        -0.06234         0.04150
C           2.48157        -0.08826         0.01393
C           3.24118         1.02664        -0.49152
C           4.58202         1.18515        -0.43682
C           5.31494         2.47013        -0.87452
C           4.91981         3.72218        -0.03199
S           3.19801         4.24595        -0.43312
C           2.74725         5.39002         0.89187
S           0.98431         5.69266         0.79214
C           0.11716         4.25158         1.35127
S           0.45474         7.33275         1.95734
S           7.16213         2.13706        -0.75997
S           8.13960         3.82586        -1.47183
S          10.14943         3.37749        -1.26753
C          10.99694         4.82026        -1.83368
S          12.67529         4.89616        -1.86161
H           0.56850        -0.90389         0.42133
H           0.56552         0.79562        -0.30390
H           3.00874        -0.95545         0.39476
H           2.62305         1.80380        -0.92603
H           5.17611         0.36698        -0.03699
H           5.11293         2.63604        -1.94014
H           5.54348         4.57761        -0.30056
H           5.04622         3.51665         1.03811
H           3.24129         6.34116         0.68293
H           2.98858         5.04631         1.90116
H           0.65967         5.92343        -0.49167
H           0.38049         4.03474         2.38661
H           0.37223         3.40760         0.70709
H          -0.95596         4.44520         1.26717
H           0.82366         6.89065         3.16769
H          10.39733         5.68089        -2.17093

