%chk=CdCC1dNCdCCdCqSCdNOrS1.chk
%NProcShared=20
# opt freq b3lyp/6-31g(2df,p)

Title Card Required 

0  1
C           0.99248        -0.00916         0.10844
C           2.32890        -0.04201         0.14579
C           3.07755         0.59919         1.26659
N           2.67508         0.39542         2.47633
C           3.22980         0.84725         3.62315
C           4.31711         1.56601         3.89055
C           5.30480         2.15620         3.03642
C           5.43572         2.19238         1.70555
S           6.75845         3.01466         0.88724
C           7.79762         3.73553         2.07286
N           8.83379         4.38974         1.65820
O           9.53216         4.88384         2.76590
S           4.37656         1.47832         0.56101
H           0.45743        -0.44820        -0.72552
H           0.41860         0.46959         0.89559
H           2.90550        -0.48905        -0.65740
H           2.66056         0.52698         4.49889
H           4.51350         1.74514         4.95022
H           6.03890         2.65018         3.65927
H           7.60210         3.65120         3.14926
H          10.27836         5.35018         2.34456

