%chk=CdCC1dC2CdCCdCSNdCCdCCdC2CdC1.chk
%NProcShared=20
# opt freq b3lyp/6-31g(2df,p)

Title Card Required 

0  1
C           1.02879         0.29271         0.02243
C           2.36897         0.15482         0.04920
C           3.08351         0.06134         1.21208
C           2.72917        -0.80633         2.11961
C           1.38309        -1.59781         2.20013
C           0.68547        -1.75907         0.92678
C          -1.03038        -2.56988         0.94661
C          -1.07141        -2.86383        -0.27341
S          -2.22737        -4.30383         1.50670
N          -2.72875        -3.59029        -0.72867
C          -2.98338        -5.32143         0.04925
C          -3.11571        -4.34327        -1.26615
C          -1.55938        -4.36258        -0.08644
C           0.33555        -3.40471         1.40801
C           1.79209        -2.21020         2.32624
C           3.42626        -0.65832         2.87393
C           4.12228         0.59221         1.85682
H           0.46084         0.15467        -0.86893
H           0.45001         0.10286         0.96052
H           2.89704         0.14226        -0.85650
H           0.91887        -2.71657         3.48504
H           1.09328        -1.40580         0.18295
H          -0.81290        -3.75182         2.20842
H          -0.72777        -2.13486        -0.75017
H          -4.37513        -5.83638        -0.32116
H          -4.28781        -4.42922        -2.56193
H          -3.40407        -4.52934        -0.74268
H           1.43514        -3.04213         2.48411
H           4.77177         0.26422         3.43440
H           4.75017         1.50334         1.31048

