%chk=CdCN1CqCrdNONdCCdCNdC1CC.chk
%NProcShared=20
# opt freq b3lyp/6-31g(2df,p)

Title Card Required 

0  1
C           1.23103        -0.12396         0.36875
C           2.57289        -0.16214         0.65572
N           3.83887        -0.30086         1.70038
C           4.95180        -0.20734         1.02600
C           5.35414        -0.04263        -0.31400
N           5.89966        -0.31910         1.80301
O           7.12909        -0.23983         1.31505
N           7.40685        -0.20158         2.55968
C           8.36102        -0.28129         3.32867
C           8.28207        -0.52950         5.34696
C           7.48391        -0.98720         4.36760
N           5.71917        -0.62651         4.29631
C           4.27726        -0.50363         3.39612
C           2.33067        -0.47856         3.48147
C           0.87988        -0.57982         4.22963
H           0.78341        -0.00082        -0.66754
H           0.40299        -0.20526         1.04937
H           2.99464        -0.03983        -0.34926
H           4.59113         0.04244        -1.04024
H           5.93942        -0.96221        -0.41350
H           5.93953         0.87337        -0.19521
H           9.34908        -0.38374         2.82924
H           9.22063        -0.70253         6.00425
H           9.08745        -0.80838         4.53893
H           2.01761        -1.21414         2.67138
H           2.01777         0.40934         2.85694
H           0.76836        -1.59031         4.61530
H          -0.16668        -0.51997         3.72278
H           0.76615         0.31181         4.84121

