%chk=CdCqCrC1Cd[SH]CdCCdC2CdCqC2rS1.chk
%NProcShared=20
# opt freq b3lyp/6-31g(2df,p)

Title Card Required 

0  1
C           1.66394        -0.12066        -0.38250
C           3.07013         0.06911        -0.59702
C           3.33377         1.09151         0.59191
C           4.49521        -0.88956        -1.55742
C           5.08751        -0.95897        -0.25654
S           5.78516        -2.55561        -0.23652
C           7.24574        -1.59180         0.08318
C           8.27563        -2.34408        -0.21538
C           9.59121        -1.86887        -0.24125
C          10.13321        -2.35547        -1.37092
C           9.52517        -2.86283        -2.67421
C           8.83014        -1.58765        -2.66029
C          10.70963        -1.26892        -2.08754
S           6.63104        -0.78427        -2.58952
H           1.03729         0.52411         0.33958
H           0.85611        -0.80162        -0.69884
H           2.44828         1.60588         1.05799
H           3.90776         1.89730         0.17331
H           3.77009         0.62268         1.48955
H           3.88986        -1.86850        -1.52998
H           5.29725        -0.03727         0.29747
H           5.76434        -2.64186        -1.61996
H           7.38089        -0.49181         0.11099
H           8.02167        -3.11184        -0.97242
H           9.81224        -0.77850        -0.11777
H           9.77911        -3.93334        -2.77887
H          11.74517        -1.04416        -2.55694
H          11.67046        -1.85026        -1.46674

