%chk=CdNC1dCCdCCdCqCCCdOrC1dC.chk
%NProcShared=20
# opt freq b3lyp/6-31g(2df,p)

Title Card Required 

0  1
C           1.10623        -0.00608        -0.09135
N           2.39068         0.09515        -0.16434
C           3.04308        -0.82164        -0.97684
C           2.72738        -0.87827        -2.28332
C           3.20235        -1.71128        -3.34742
C           4.14339        -2.64738        -3.29960
C           4.92719        -3.05884        -2.18043
C           4.96234        -2.66836        -0.89065
C           5.97384        -3.35631         0.03938
C           6.83227        -4.43428        -0.60953
C           7.78433        -5.06279         0.35178
O           8.55614        -5.95744         0.00376
C           4.10286        -1.61351        -0.27578
C           4.29740        -1.33932         1.04093
H           0.55580         0.65713         0.59409
H           0.50163        -0.72054        -0.67705
H           1.96508        -0.18551        -2.63640
H           2.71948        -1.55244        -4.30993
H           4.37221        -3.18754        -4.21944
H           5.60138        -3.83962        -2.52417
H           5.43217        -3.81896         0.87663
H           6.65089        -2.59796         0.45827
H           7.42952        -3.99461        -1.41634
H           6.18961        -5.23236        -0.99792
H           7.77005        -4.69497         1.38821
H           5.02422        -1.82557         1.67715
H           3.73232        -0.58076         1.57307

