%chk=CN1C2dCqCdCCdCC3dCN1C3rSCdCCdCNC[CH]2.chk
%NProcShared=20
# opt freq b3lyp/6-31g(2df,p)

Title Card Required 

0  2
C           2.26677         0.12264         0.50778
N           4.26422        -0.00601         1.28540
C           5.31921        -1.48479        -0.01986
C           5.07521        -0.57358        -1.03051
C           5.80846         0.02177        -0.06978
C           5.56355         1.16112         0.35851
C           5.78427         2.22065         1.05519
C           4.44488         2.98307         1.35921
C           4.84189         3.78752         2.89297
C           4.91528         2.82421         3.91314
N           4.99857         1.54018         2.67579
C           6.17702         3.35097         2.70785
S           6.36870        -0.62204        -2.01552
C           7.79598        -1.29203        -1.60783
C           8.20643        -1.98156        -2.64605
C           9.56842        -1.84984        -2.25043
C          10.09267        -2.50137        -3.33384
N          10.71428        -3.11625        -2.23997
C           8.78910        -3.70936        -1.83163
C           6.70011        -2.83302        -1.01117
H           1.29545        -0.61565        -0.43175
H           1.14222         0.96412        -0.15189
H           1.02704        -0.24241         1.10817
H           6.76116         0.02656         0.20877
H           4.59623         1.32493         0.07046
H           6.67101         1.88686         1.70369
H           3.52018         2.75440         2.16580
H           4.83963         3.48014         5.23492
H           7.47099         3.90900         2.85448
H           6.46797         4.90698         2.47892
H           8.03048        -0.93043        -0.68221
H           7.60860        -3.15992        -3.13685
H          10.15950        -1.54834        -1.31186
H           9.76670        -3.80544        -4.00386
H          11.92833        -2.52874        -2.09672
H          10.16119        -4.36582        -2.27328
H          10.13825        -4.01755        -2.70507
H           5.36186        -2.93976        -1.75655

