%chk=CN1CqNrdCdCdNCNd[SH]NdC1N.chk
%NProcShared=20
# opt freq b3lyp/6-31g(2df,p)

Title Card Required 

0  1
C           1.80875        -0.06018         0.18245
N           3.53493        -0.55143         0.06680
C           3.55514        -1.31763        -1.03225
N           2.63084        -1.89605        -1.80720
C           4.74953        -1.41437        -1.46405
C           5.85635        -1.24555        -1.66728
N           7.00246        -1.11202        -1.89687
C           7.67624        -2.23909        -1.35717
N           8.81125        -1.44857        -1.04920
S           8.60505        -1.57934         0.43584
N           6.70392        -0.63600         0.82830
C           5.14322        -0.21344         0.78452
N           4.30116         0.94509         1.47898
H           1.18841        -0.70097        -0.50675
H           1.38195         0.90366        -0.24160
H           1.24393        -0.31640         1.10107
H           1.63938        -1.92216        -1.67140
H           3.03956        -2.60173        -2.39574
H           7.76158        -3.04907        -2.06232
H           7.21066        -2.86210        -0.45914
H           9.29250        -2.88417        -0.27954
H           4.28847         1.80622         2.02604
H           3.31475         0.91094         1.20437

