%chk=CNC1dCCdCC2dC3CdCCqdN3rSC1dC2.chk
%NProcShared=20
# opt freq b3lyp/6-31g(2df,p)

Title Card Required 

0  1
C           1.19521        -0.08179        -0.02319
N           2.68654        -0.24515         0.02249
C           3.50811        -1.08726        -0.82548
C           2.85133        -1.50822        -1.95004
C           3.17123        -2.52174        -2.87853
C           4.07320        -3.53413        -2.67455
C           4.68131        -3.93012        -1.37954
C           5.90561        -4.55133        -1.42400
C           6.89336        -4.86882        -0.30912
C           8.10670        -4.67627        -0.88116
C           7.54088        -3.52732        -1.68807
N           6.67230        -4.10470        -2.47827
S           6.77055        -1.79855        -0.73009
C           4.77950        -1.93074        -0.26823
C           4.44445        -3.23224        -0.10316
H           0.85551         0.83273         0.48684
H           0.70991        -0.92316         0.48803
H           0.74422        -0.01707        -1.02599
H           3.16652         0.57697         0.38014
H           1.92442        -1.01617        -2.24457
H           2.62523        -2.49307        -3.81728
H           4.35443        -4.07992        -3.56247
H           7.04529        -4.40185         0.68313
H           9.03097        -5.09863        -0.55786
H           5.03497        -3.72767         0.66135

