%chk=CNCCC1dCCdCCdC2CC3dCC3dNCdCCdC12.chk
%NProcShared=20
# opt freq b3lyp/6-31g(2df,p)

Title Card Required 

0  1
C           0.92271        -0.06669        -0.01511
N           2.37561        -0.07483        -0.03519
C           2.87135        -0.08359         1.33819
C           4.40169        -0.08007         1.33349
C           4.84445         0.10845         2.75013
C           4.86238         1.35853         3.23164
C           4.87993         1.48692         4.66989
C           4.52039         0.47798         5.56132
C           4.59380        -1.06712         5.59004
C           4.84859        -1.87543         4.56179
C           5.57748        -3.27466         4.97386
C           6.16235        -3.43815         6.31631
C           6.63788        -4.22683         7.36472
C           6.42482        -2.65184         7.53368
N           7.29047        -1.70537         7.38517
C           7.05427        -0.34582         7.14785
C           7.05399         0.18566         5.83226
C           6.71228        -0.48237         4.17235
C           5.48013        -0.90396         3.62948
H           0.54918        -0.06715        -1.04078
H           0.54018         0.82286         0.49601
H           0.54087        -0.96069         0.48827
H           2.71624         0.76492        -0.50378
H           2.51169        -0.96816         1.87817
H           2.49429         0.80234         1.87299
H           4.75380         0.78284         0.74304
H           4.79958        -0.97535         0.84992
H           4.79591         2.24219         2.59767
H           5.51376         2.37049         4.92551
H           4.94586         0.50843         6.54057
H           5.54930        -1.34335         6.08083
H           6.33852        -3.61406         4.24464
H           4.71442        -3.92976         4.88329
H           6.38270        -5.25399         7.22685
H           6.91575         0.31163         8.09158
H           6.78953         1.29878         6.01958
H           6.90807        -1.46760         3.65642

