%chk=CNCC1dCNdc2ncccc2dCSCdCCdC1.chk
%NProcShared=20
# opt freq b3lyp/6-31g(2df,p)

Title Card Required 

0  1
C           0.87406        -0.23335        -0.41595
N           2.29203        -0.08567        -0.67637
C           2.87828         1.26462        -0.84358
C           4.15489         1.40501         0.00957
C           5.22533         2.19639        -0.31424
N           6.50264         2.30469         0.20219
C           7.03858         3.51101         0.38282
N           8.41335         3.58521         0.50822
C           9.02550         4.71685         0.21315
C           8.39115         5.95911        -0.24199
C           7.04733         6.00441        -0.09647
C           6.32610         4.84576         0.39444
C           5.09135         5.04243         0.91563
S           4.44349         4.11128         2.21709
C           2.82061         3.90251         1.67047
C           2.12080         2.81929         2.05802
C           2.63921         1.45201         1.90763
C           3.80235         0.95705         1.38133
H           0.60210        -1.29143        -0.48714
H           0.27355         0.36101        -1.10038
H           0.54141         0.00297         0.60158
H           2.69107        -0.79907        -1.27602
H           2.26066         2.05584        -0.41939
H           2.89429         1.57664        -1.89240
H           4.99660         2.91186        -1.09777
H          10.11912         4.79219         0.34960
H           8.98620         6.80681        -0.54705
H           6.53520         6.94506        -0.22529
H           4.58501         5.97612         0.72964
H           2.30407         4.67164         1.10254
H           1.97427         2.71674         3.14411
H           1.72394         0.97475         1.55549
H           3.85469        -0.13768         1.38666

