%chk=CNdCdCdCCdCCqdOrCdN.chk
%NProcShared=20
# opt freq b3lyp/6-31g(2df,p)

Title Card Required 

0  1
C           1.05889        -0.11735         0.07750
N           2.52677        -0.20983         0.08157
C           3.02688        -1.27787         0.01303
C           3.62735        -2.32341        -0.05452
C           4.32235        -3.44070        -0.09700
C           4.13738        -4.47885        -1.11113
C           4.79844        -5.65702        -1.17919
C           4.50242        -6.64529        -2.27791
O           3.66836        -6.44636        -3.15236
C           5.26575        -7.96192        -2.31644
N           5.07465        -8.86944        -3.22430
H           0.74567         0.93729         0.11153
H           0.61702        -0.59916         0.95673
H           0.62040        -0.54119        -0.83273
H           5.07356        -3.61944         0.67068
H           3.38791        -4.25520        -1.87049
H           5.55597        -5.93994        -0.45654
H           6.01037        -8.13139        -1.52626
H           4.34747        -8.55986        -3.88925

