%chk=CNdc1cccccccc2cccc-2s1.chk
%NProcShared=20
# opt freq b3lyp/6-31g(2df,p)

Title Card Required 

0  1
C           1.60602        -0.20736        -0.54308
N           3.25057        -0.46885        -1.68599
C           4.29799        -0.69132        -3.15927
C           4.89038        -0.39971        -1.38331
C           5.82878        -0.69475        -2.13044
C           7.10768        -0.62607        -2.00268
C           7.86376        -0.90735        -2.98001
C           9.16171        -0.78021        -2.94338
C           9.74779        -1.11124        -3.98337
C          10.95063        -1.18584        -4.39504
C          10.38128        -1.43831        -5.57708
C          12.19020        -1.56374        -5.87337
C          11.96644        -1.82125        -7.10037
C          10.02133        -1.72229        -6.90884
C           8.43206        -1.45565        -6.10223
S           6.19483        -1.08575        -4.84591
H           1.12456         0.11895         0.80227
H           0.86845        -1.10781        -0.38328
H           0.85855         0.63179        -0.82502
H           4.98798        -0.13993        -0.25861
H           5.78725        -1.16289        -3.00832
H           7.43046        -0.35031        -1.09739
H           7.76484        -1.21913        -3.94843
H           9.68634        -0.59177        -2.13896
H           9.06499        -1.69491        -4.48881
H          11.79044        -1.05347        -3.76324
H          13.38806        -1.46818        -5.35147
H          13.26997        -1.96412        -7.64100
H          10.74014        -2.01258        -8.02028

