%chk=CNdc1ccccccncccc2cc-2n1.chk
%NProcShared=20
# opt freq b3lyp/6-31g(2df,p)

Title Card Required 

0  1
C           2.14522         0.01502        -0.58284
N           4.33337         0.21918        -1.74206
C           6.22773         0.42854        -2.93079
C           4.92284         0.13252        -1.24997
C           5.63612         0.35963        -2.53952
C           7.48054         0.27690        -2.06981
C           8.47520         0.35902        -2.53609
C           9.90694         0.52038        -3.45231
C           8.96584         0.84509        -5.29598
N           9.76995         0.78310        -4.94414
C          11.17701         0.97876        -6.05503
C          13.17525         0.80932        -5.09293
C          13.77309         1.08095        -6.63526
C          12.92889         0.87972        -5.49271
C          12.71827         1.07610        -6.60770
C          10.92738         0.72225        -4.59840
N           8.63541         0.61225        -3.97389
H           0.86521        -0.22439         0.77658
H           0.71067        -0.84209        -0.72257
H           0.71067         0.86831        -0.42134
H           5.18706        -0.05135        -0.20597
H           4.63587         0.50190        -3.34733
H           7.33139         0.13402        -1.25849
H           7.31247         0.60022        -3.90564
H           9.60558         0.34393        -2.45036
H           9.09688         0.97955        -6.05948
H          11.12558         1.13537        -6.94426
H          13.99006         0.68654        -4.39574
H          13.40244         1.34128        -8.11342
H          14.50100         1.25381        -7.61674

