%chk=CO[SH]dC1CdCCdCCdCCdCCC1.chk
%NProcShared=20
# opt freq b3lyp/6-31g(2df,p)

Title Card Required 

0  1
C           0.97557        -0.05542        -0.03419
O           2.61766        -0.11656        -0.05995
S           3.85070        -1.28896        -1.16626
C           6.46129        -1.72232        -1.30025
C           5.23017        -2.34937        -2.08328
C           6.43393        -2.60038        -2.31475
C           7.24931        -3.38975        -3.06560
C           8.60540        -3.45283        -3.17544
C           9.03767        -4.05588        -4.21292
C          10.02288        -2.98945        -4.09902
C          10.52920        -4.53011        -4.59778
C          11.99669        -4.52702        -3.92094
C          10.52745        -4.04209        -2.57072
C           8.57906        -2.58413        -1.61853
H           0.57034         0.73496         0.67580
H           0.55326        -0.99553         0.32088
H           0.55391         0.19555        -1.00717
H           2.61545        -1.00778        -2.26847
H           4.67080        -2.99318        -2.67448
H           7.33737        -2.38346        -2.10749
H           6.70533        -4.01592        -3.59921
H           9.83858        -2.64921        -2.42070
H           8.87330        -5.10731        -4.40853
H          11.27286        -2.79103        -3.18140
H          10.90047        -5.63853        -5.16565
H          13.42163        -4.38839        -3.91934
H          11.53106        -5.11086        -3.34364
H          11.71064        -4.30825        -3.78769
H           8.01108        -1.14512        -1.72885
H           7.94066        -1.74818        -0.70201

