%chk=COC1dCCdC2CdCdCC2dC2NdC12.chk
%NProcShared=20
# opt freq b3lyp/6-31g(2df,p)

Title Card Required 

0  1
C           0.93259         0.02145        -0.08423
O           2.35153        -0.01294        -0.17663
C           2.91459         1.14959        -0.65970
C           2.75204         2.37134        -0.11012
C           3.50093         3.56582        -0.51556
C           3.59506         3.89677        -1.81890
C           3.54281         5.27897        -2.34144
C           2.36804         5.23647        -2.93010
C           1.83417         4.09173        -3.27222
C           2.79797         3.10493        -2.77031
C           3.00297         1.80375        -3.03001
N           4.19111         1.20165        -2.98920
C           3.84565         0.99726        -1.80025
H           0.59992        -0.90813         0.38809
H           0.49924         0.07537        -1.08718
H           0.57385         0.84917         0.53334
H           1.98212         2.53505         0.63899
H           3.73225         4.28340         0.26328
H           4.36985         5.54102        -3.01285
H           0.84619         3.95197        -3.66912

