%chk=COC1dCCdC2CdNCdCCdCCdC1OC2.chk
%NProcShared=20
# opt freq b3lyp/6-31g(2df,p)

Title Card Required 

0  1
C           1.21335        -0.14571        -0.15610
O           2.63720        -0.30028        -0.50131
C           3.65692        -1.35854        -0.78781
C           4.66615        -1.12824         0.01679
C           5.97194        -1.36478        -0.56514
C           6.37339        -1.08858        -1.89488
C           7.62854        -1.77993        -2.30587
N           8.40810        -1.93905        -1.32318
C           9.47288        -2.78321        -1.36415
C           9.36042        -3.76439        -0.43677
C           8.47412        -4.69694        -1.20795
C           6.98348        -4.30095        -1.18832
C           5.50953        -3.59034        -1.88439
C           4.30297        -2.37664        -2.06236
O           4.28799        -1.59007        -3.21247
C           5.49239        -0.77517        -3.16227
H           0.94160         0.61860         0.63981
H           0.74199        -1.06256         0.18972
H           0.71900         0.27153        -1.04265
H           4.34109        -1.35294         1.03876
H           6.30709        -2.27026        -0.00961
H           7.74936        -2.11664        -3.38380
H           9.76663        -3.14966        -2.36843
H           9.07346        -3.80071         0.62412
H           9.58104        -4.97941        -1.53383
H           6.99021        -5.19296        -0.46919
H           4.87004        -3.61895        -0.94808
H           5.29647         0.30169        -3.20449
H           5.96172        -0.99373        -4.14551

