%chk=COc1ccc2cqcnc3c4ccd3cc-4c1rdNCdNCdCCd2.chk
%NProcShared=20
# opt freq b3lyp/6-31g(2df,p)

Title Card Required 

0  1
C           1.16093         0.12844         0.17313
O           2.57499         0.16345         0.53529
C           3.17958         0.74033         1.75880
C           4.87597         0.60035         1.41728
C           5.99093         0.69949         2.22356
C           7.67115         0.72193         2.73150
C           7.31796         1.02483         4.10279
C           6.29921         1.20191         5.12544
N           5.04487         1.09129         5.01455
C           4.06958         1.19745         6.03878
C           3.06801         1.62593         5.18413
C           2.80264         0.27106         5.14084
C           2.70076         0.94774         6.44225
C           1.44931         1.95094         5.50495
C           2.19490         2.18692         4.24233
C           2.29779         1.25136         2.77923
N           8.40860         1.28531         4.61797
C           8.94838         1.51469         5.72327
N           9.96710         1.36982         5.18393
C          11.23346         1.29775         5.06166
C          10.90423         0.96737         3.70420
C           9.32739         0.73323         2.62769
H           0.95181        -0.13751        -0.89635
H           0.68403         1.10038         0.31356
H           0.66472        -0.66231         0.74049
H           5.03291         0.22797         0.40401
H           5.36411         0.87156         3.09698
H           6.76751         1.45207         6.05699
H           2.77385        -0.77645         5.20632
H           0.66708         2.41929         6.17264
H           1.32624         0.73682         2.72172
H           8.67641         1.71728         6.72990
H          11.31029         1.57466         6.16317
H          12.01789         0.94535         3.50970
H           9.60284         0.50026         1.59383

