%chk=COC1dCCdCC2dCC3dCCdCC3dCSC1dC2.chk
%NProcShared=20
# opt freq b3lyp/6-31g(2df,p)

Title Card Required 

0  1
C           1.20567         0.13613         0.04474
O           2.58043         0.44626         0.41313
C           2.96798        -0.06422         1.68881
C           2.68760        -1.36485         1.89658
C           3.16934        -2.12079         2.98924
C           4.36104        -1.93876         3.52873
C           5.48104        -1.02316         3.09842
C           6.49398        -0.80789         3.93611
C           6.30942        -1.29634         5.24437
C           6.53173        -2.53269         5.63674
C           6.38248        -2.56404         7.06154
C           6.02496        -1.31845         7.48789
C           5.67683        -0.49681         6.25709
C           5.08751         0.70816         5.91873
S           3.97086         1.32584         4.36266
C           4.12204         0.68098         2.49354
C           5.31725         0.13981         2.20893
H           0.99214         0.39880        -1.00214
H           0.56718         0.74099         0.68713
H           0.89313        -0.91667         0.12945
H           2.07559        -1.96569         1.23244
H           2.47338        -2.83630         3.41991
H           4.38489        -2.39594         4.51612
H           7.11345         0.09599         3.93466
H           6.80814        -3.33558         4.96052
H           6.66534        -3.46187         7.59879
H           6.01408        -1.10499         8.54970
H           4.99809         1.45913         6.71118
H           6.17114         0.82521         2.30092

