%chk=COC1dCCdCCdCCdC2CdCCdCCdC2S1.chk
%NProcShared=20
# opt freq b3lyp/6-31g(2df,p)

Title Card Required 

0  1
C           1.39729        -0.07808         0.17894
O           3.21369        -0.37679         0.80985
C           4.67875        -0.96798         1.95358
C           5.20134        -0.73045         0.77203
C           5.72771        -2.00339         0.89000
C           7.05407        -1.97679         0.75961
C           7.29371        -3.40754         1.83039
C           8.20830        -3.38907         2.73164
C           9.13168        -3.95111         3.57302
C          10.28520        -3.39263         3.46570
C          11.37156        -4.48210         4.40309
C          12.70118        -4.79009         4.57997
C          13.58748        -3.99214         3.83725
C          12.90757        -2.96477         2.98823
C          11.12729        -2.17021         2.56845
C           9.38880        -1.72535         3.10627
S           7.01395        -1.13312         2.99585
H           0.90845         0.77426        -0.67386
H           0.76085         0.29016         1.01284
H           0.79604        -0.94875        -0.28919
H           5.01576        -0.04152        -0.05843
H           5.26576        -2.75922         1.87536
H           7.38470        -0.77638         0.77753
H           6.75808        -3.51845         2.95770
H           8.49214        -2.55015         1.91342
H           8.96318        -4.61344         4.33375
H          10.82722        -5.23952         4.97988
H          13.12420        -5.57657         5.27796
H          14.75965        -4.35440         4.14467
H          14.20462        -2.71236         2.62067
H          12.11957        -1.85320         1.86071

