%chk=COC1dC2CdCCqdCCdCCdCOC2rCdC1.chk
%NProcShared=20
# opt freq b3lyp/6-31g(2df,p)

Title Card Required 

0  1
C           1.12993        -0.04011        -0.22609
O           2.54608         0.00983        -0.46104
C           3.26473        -0.38668        -1.62139
C           3.06824        -0.06248        -3.00336
C           4.20241         0.64707        -3.67435
C           5.21687        -0.26533        -3.76481
C           5.54636        -1.51771        -3.09302
C           6.48924        -2.34274        -3.62570
C           6.79560        -2.14175        -4.92190
C           7.60764        -2.28119        -5.95890
C           6.94955        -1.13420        -6.89613
C           5.52829        -1.30685        -7.10737
O           4.28330        -0.74641        -6.22568
C           2.93353        -0.50392        -4.68582
C           5.30078        -1.77499        -1.73475
C           4.31700        -1.22782        -1.06714
H           0.84722         0.20006         0.83148
H           0.71712        -1.03851        -0.39687
H           0.65852         0.71921        -0.83926
H           3.91922         1.33207        -4.71446
H           5.47948        -0.20944        -4.78588
H           7.15124        -2.99198        -3.11161
H           5.95654        -1.64518        -5.27030
H           8.41667        -3.00187        -5.78143
H           7.42511        -0.94085        -7.88178
H           6.09270        -2.40705        -7.56000
H           2.00202        -0.73280        -5.00937
H           2.42913         0.69368        -4.53519
H           6.01756        -2.43842        -1.28540
H           4.32806        -1.48154        -0.00474

