%chk=COC1dCCCqCOCqCrCrdC2CdCOCdC2NdC1O.chk
%NProcShared=20
# opt freq b3lyp/6-31g(2df,p)

Title Card Required 

0  1
C           1.28852        -0.08115        -0.03912
O           2.73946        -0.37833        -0.16292
C           3.54058         0.23396        -1.17341
C           4.31802         1.26091        -0.88102
C           5.16048         1.86649        -1.95752
C           6.61658         1.68814        -1.68839
C           7.30290         0.69203        -0.54700
O           6.38445         0.03334         0.29630
C           6.80482        -0.57641         1.49674
C           7.59224         0.45976         2.25880
C           5.53594        -0.95045         2.27712
C           7.11896         1.54194        -2.93845
C           6.77277         2.07109        -4.26734
C           7.90897         2.39299        -5.00871
O           9.05140         2.01720        -4.37638
C           8.85849         0.84422        -3.45560
C           7.61398         0.18900        -2.93908
N           6.01062        -0.48331        -2.98569
C           4.64934        -0.45442        -2.40092
O           3.45490         0.08554        -3.29217
H           0.88859        -0.42952         0.94023
H           0.75170        -0.67204        -0.78706
H           0.95935         0.97268        -0.11125
H           4.74534         0.78836        -0.01759
H           4.77398         2.79597        -2.34964
H           5.00572         1.40140        -2.96907
H           8.04638         1.31414        -0.05100
H           7.89337        -0.17512        -0.89750
H           7.37379        -1.48784         1.27663
H           6.98573         1.37156         2.34386
H           8.49271         0.73221         1.70561
H           7.90683         0.10328         3.23353
H           4.89183        -0.07372         2.42819
H           5.78839        -1.36574         3.25678
H           4.92077        -1.68115         1.73689
H           5.93261         1.73081        -4.82946
H           7.92091         2.66143        -6.03646
H           9.91753         0.93158        -3.06907
H           2.62872         0.43355        -2.81996

