%chk=COC1dCCNdCCdCCdCNdC1.chk
%NProcShared=20
# opt freq b3lyp/6-31g(2df,p)

Title Card Required 

0  1
C           1.33853         0.21589        -0.19767
O           3.05174         0.63586        -0.71341
C           4.42684         1.57293        -1.69616
C           4.76507         0.68847        -0.68802
C           5.54764         1.46723        -1.44525
N           6.94758         1.20602        -1.17371
C           7.63096         2.20956        -1.71338
C           9.07361         1.98437        -1.79713
C           9.70084         3.03988        -2.59349
C          11.03294         2.72575        -2.39422
C           9.91789         2.65008        -3.54190
N           7.92827         2.62098        -3.57100
C           6.10901         2.23024        -2.95830
H           0.93460        -0.60408         0.64815
H           0.78978        -0.20255        -1.06088
H           0.79175         1.09398         0.18943
H           5.32290         0.07439        -0.04988
H           5.25850         2.90052        -1.23088
H           5.17733         1.02874        -2.91340
H           7.07728         3.48221        -2.55240
H           9.62579         1.24693        -1.25270
H           9.37067         4.06078        -3.77301
H          11.83322         1.91317        -2.22664
H          11.11894         3.60814        -3.94106
H           4.90201         2.89795        -3.04169

