%chk=COCqNrdCOCdCCdCC1dCqNrCdCSCdC1.chk
%NProcShared=20
# opt freq b3lyp/6-31g(2df,p)

Title Card Required 

0  1
C           0.99322         0.00022         0.02459
O           2.41717         0.00496         0.01220
C           3.05091         0.19209        -1.20292
N           2.33288         0.36650        -2.34757
C           4.39500         0.19224        -1.21485
O           5.11198         0.36423        -2.37878
C           6.48443         0.41244        -2.36060
C           7.18573         0.63037        -3.48192
C           8.62630         0.70138        -3.50528
C           9.37453         0.77820        -4.62102
C          10.86421         0.73217        -4.62360
C          11.48294        -0.28647        -3.96162
N          10.76871        -1.30303        -3.34814
C          12.91314        -0.46993        -3.80042
C          14.01189         0.14830        -4.23359
S          14.29228         1.50080        -5.21915
C          12.78162         2.12408        -5.67373
C          11.51845         1.77598        -5.40591
H           0.65910        -0.16524         1.05384
H           0.59385        -0.81473        -0.58905
H           0.59221         0.96541        -0.30357
H           1.32723         0.38980        -2.36126
H           2.85101         0.52100        -3.20531
H           4.97986         0.05541        -0.31695
H           6.93995         0.26341        -1.39050
H           6.65627         0.74268        -4.42449
H           9.13024         0.62477        -2.54208
H           8.90975         0.87767        -5.60076
H           9.76195        -1.33959        -3.44146
H          11.20784        -1.97601        -2.73739
H          13.14822        -1.32811        -3.16660
H          14.94381        -0.30119        -3.89286
H          12.88458         2.99602        -6.31824
H          10.79081         2.43253        -5.89033

