%chk=CON1CdCCdCCdCdNCqdOrC1.chk
%NProcShared=20
# opt freq b3lyp/6-31g(2df,p)

Title Card Required 

0  1
C           1.29664         0.31057         0.33542
O           2.50226         1.27119         0.38599
N           3.47056         1.66570         1.66646
C           4.64358         1.09135         1.26326
C           5.53080         1.51547         2.10454
C           6.85312         1.78366         1.91907
C           7.20421         2.47393         2.95025
C           8.34967         3.22602         3.21846
C           7.83526         4.22414         3.76549
N           6.68369         4.48221         4.20817
C           5.30171         4.49520         3.34414
O           4.94767         5.65317         3.57416
C           3.84862         3.34307         2.52234
H           1.20237        -0.52642        -0.45146
H           0.58344         0.98976        -0.15799
H           0.82944        -0.13742         1.22970
H           4.85421         0.54675         0.35208
H           5.04116         1.75426         3.04885
H           7.45987         1.46591         1.11711
H           6.40985         2.64468         3.70350
H           9.24057         2.88906         2.65572
H           3.15125         3.98850         1.98965
H           3.29780         3.04239         3.42532

