%chk=CONCCdCqCrCqCrC1dCCdCCdCCdC1.chk
%NProcShared=20
# opt freq b3lyp/6-31g(2df,p)

Title Card Required 

0  1
C           0.88919         0.09388        -0.02795
O           2.30700         0.02956        -0.05351
N           2.71972        -0.83777         1.04416
C           4.16574        -0.78024         0.98581
C           4.76836        -1.69479         2.00522
C           6.10359        -1.87290         2.10599
C           6.96450        -1.08685         1.11893
C           6.70251        -2.86355         3.18812
C           6.08567        -4.25986         2.92534
C           8.27820        -2.88723         3.32673
C           8.90594        -1.75054         3.04452
C          10.17620        -1.16915         2.78023
C          11.41434        -1.49279         3.08852
C          11.95501        -2.66843         3.68747
C          11.45153        -3.85155         4.02597
C          10.15811        -4.47092         4.06613
C           8.90071        -4.10627         3.80673
H           0.55843         0.79160        -0.79865
H           0.54100         0.43743         0.95053
H           0.48632        -0.89941        -0.24833
H           2.45933        -1.75847         0.68952
H           4.51555         0.24429         1.16588
H           4.48207        -1.09842        -0.01780
H           4.08545        -2.22363         2.66468
H           6.43401        -0.64608         0.27422
H           7.72738        -1.72542         0.67336
H           7.38621        -0.18744         1.58172
H           6.32853        -2.53059         4.17087
H           6.44100        -4.66319         1.97170
H           4.99157        -4.23691         2.90170
H           6.31313        -4.98120         3.71528
H           8.23176        -0.91316         3.00777
H          10.06030        -0.21980         2.24278
H          12.16450        -0.73865         2.83463
H          13.02902        -2.55731         3.83786
H          12.20656        -4.55205         4.38692
H          10.24095        -5.49053         4.45837
H           8.19858        -4.88045         4.11348

