%chk=CSC1dC2CC3dCCdCCdCCdC3CdC21.chk
%NProcShared=20
# opt freq b3lyp/6-31g(2df,p)

Title Card Required 

0  1
C           1.35826        -0.14990        -0.23326
S           3.18110        -0.12777        -0.73143
C           3.55498        -1.26728        -2.04980
C           4.75306        -1.78853        -1.76898
C           5.41311        -3.09455        -1.78946
C           6.86707        -2.78134        -1.83864
C           7.70449        -3.32416        -0.94598
C           9.12932        -3.20455        -0.98676
C           9.76839        -2.03179        -0.86666
C           9.08499        -0.76212        -0.77299
C           8.38564        -0.24788        -1.79253
C           8.08705        -0.94851        -3.03701
C           7.10739        -1.88864        -2.99271
C           5.83979        -1.59844        -3.77293
C           4.58675        -1.42412        -3.18842
H           1.11734         0.64501         0.51076
H           0.97791        -1.06824         0.24392
H           0.74128         0.08875        -1.10017
H           5.23377        -3.67006        -2.70839
H           5.04298        -3.74669        -1.00337
H           7.26471        -3.88261        -0.12598
H           9.67214        -4.13122        -1.14805
H          10.84925        -1.99563        -0.91051
H           9.08882        -0.25121         0.18501
H           7.84477         0.69168        -1.66806
H           8.36022        -0.38688        -3.93000
H           5.97282        -1.93135        -4.81763

