%chk=CSC1dNNdCCdCCdC2SCdCCdC1S2.chk
%NProcShared=20
# opt freq b3lyp/6-31g(2df,p)

Title Card Required 

0  1
C           2.63562         0.39167         0.62160
S           5.35381         1.07908         1.50748
C           7.87604         2.04110         2.75035
N           6.06016         1.73475         2.35233
N           5.21385         2.33331         3.12382
C           6.38923         2.37271         3.17746
C           6.86918         3.21160         4.30035
C           8.08075         3.18885         4.20551
C           8.48811         3.97645         5.23884
C           9.70483         4.06528         5.36057
S          10.25143         5.29160         6.94628
C          11.47362         4.68225         6.11970
C          12.35518         5.21969         6.84294
C          11.38962         4.03603         5.29141
C           9.82585         3.04471         4.05688
S          11.42763         3.08878         4.09991
H           1.34929        -0.38740        -0.38261
H           1.06999         0.89812         0.01887
H           1.06999        -0.31799         0.96236
H           7.24461         1.34387         1.84862
H           6.03522         3.52655         4.63736
H           9.02149         2.40024         3.20890
H           8.05451         4.51016         5.93021
H          13.09767         4.20028         5.52419
H          12.36022         6.23001         8.14693
H          12.76623         4.78571         6.32577

