%chk=CSc1c2ccccccc-2ccn[nH]c1dN.chk
%NProcShared=20
# opt freq b3lyp/6-31g(2df,p)

Title Card Required 

0  1
C           0.97332         0.03423         0.06653
S           2.69588         0.52773        -0.00838
C           4.16437        -1.08244        -0.82298
C           5.56220        -1.85856        -1.10138
C           5.05782        -3.06529        -1.73646
C           6.03520        -3.73144        -2.12928
C           6.93038        -4.54751        -2.59675
C           8.31649        -3.85658        -2.38649
C           8.98800        -4.92918        -2.71478
C           8.50098        -3.57105        -1.77032
C           7.48772        -1.95566        -1.00493
C           6.99107        -0.61289        -0.33899
C           6.89166         0.93191         0.41875
N           5.91016         1.78409         0.50603
N           4.73097         1.13884         0.71400
C           3.87221        -0.47476         0.44240
N           3.00800        -1.36171        -0.76045
H           0.55826         0.90017         0.59400
H           0.68439        -0.87808         0.60401
H           0.64367         0.03297        -0.96606
H           4.21079        -3.58746        -2.02588
H           6.72655        -3.14240        -1.79211
H           6.49667        -5.41188        -3.07975
H           9.79264        -2.99116        -1.85341
H           8.54065        -5.83083        -3.33470
H           9.90996        -4.21213        -2.29350
H           5.87026        -0.33114        -0.19614
H           7.79504         1.32587         0.82698
H           4.99854         1.36806         1.69611
H           2.01710        -1.81848        -0.77292

