%chk=CSCC1dCCdCCdCCdCCqNrdCCdN1.chk
%NProcShared=20
# opt freq b3lyp/6-31g(2df,p)

Title Card Required 

0  1
C           1.16038        -0.07023        -0.14035
S           3.60070        -0.05661        -0.53061
C           5.60642         0.00712        -2.26901
C           7.99929         0.05865        -2.93252
C           6.14440         0.03656        -3.11820
C           7.48005         0.03746        -3.23627
C           7.69097         0.09673        -4.68441
C           8.85633         0.12556        -4.50741
C           9.52609         0.14244        -5.70889
C          10.80298        -0.04394        -5.63684
C          11.74232         0.10284        -6.67207
C          12.56732        -0.10774        -5.45678
N          14.42856         0.08315        -4.78607
C          13.25035         0.22663        -6.66505
C          12.11139         0.40797        -4.80899
N          10.23548         0.10873        -3.97941
H           0.70574        -0.10834         0.93930
H           0.68104        -0.94471        -0.61446
H           0.68109         0.83564        -0.55153
H           3.97802         0.65826        -2.31296
H           3.97781        -0.64482        -2.35928
H           5.18062         0.06584        -3.96936
H           7.91236        -0.01723        -1.58479
H           7.05835         0.11004        -5.30859
H           9.76030         0.06491        -2.84367
H           9.30802         0.15900        -6.63185
H          11.41527        -0.14354        -3.93696
H          11.59846         0.20594        -7.67490
H          13.97165         0.05944        -4.00489
H          15.44887         0.10734        -5.21739
H          13.70144         0.24801        -8.17610
H          13.70251         0.21438        -5.92419

