%chk=NC12CdCNCdNCdCCdCC1dC2CdO.chk
%NProcShared=20
# opt freq b3lyp/6-31g(2df,p)

Title Card Required 

0  1
N           2.29444         0.47360         0.02553
C           3.79320         1.85050         0.25525
C           3.34465         1.16035         1.46683
C           4.47489         0.75053         1.95756
N           4.90994         1.79337         2.71447
C           6.21479         1.94435         2.92971
N           6.60853         2.67936         3.89223
C           7.96328         2.56910         4.06035
C           8.41209         3.76501         4.42469
C           8.58269         3.88389         2.67111
C           7.34765         3.43398         1.53074
C           5.65458         2.44601         0.53709
C           4.91329         1.54934        -0.64649
C           3.75774         0.48112        -1.89521
O           3.60974         0.43965        -3.15616
H           1.42370         0.14737         0.79170
H           1.52461        -0.10649        -0.67470
H           2.38264         1.62024         1.76994
H           5.20527         0.35436         1.13553
H           4.27675         2.61331         2.83313
H           6.94244         1.48601         2.12459
H           8.71286         2.12713         3.17942
H           7.93202         4.60997         5.00117
H           9.87261         3.81065         3.41481
H           7.66676         4.45882         2.44150
H           2.82413        -0.49600        -1.79870

