%chk=NC1CdC2CdCCdc3ccccc3dCCdCCdCN2NC1.chk
%NProcShared=20
# opt freq b3lyp/6-31g(2df,p)

Title Card Required 

0  1
N           0.70367        -0.25686        -0.05464
C           2.10056        -0.07270         0.33311
C           2.07663         1.07850         1.36714
C           2.93911         1.14472         2.41685
C           3.51934         2.44817         3.10154
C           3.25052         3.75917         2.85800
C           4.12132         4.97918         3.01386
C           3.95967         6.11741         2.25801
C           4.42867         7.41542         2.78637
C           3.75014         8.54520         2.44842
C           2.75699         8.55889         1.39644
C           2.48221         7.43374         0.65756
C           3.15511         6.16258         0.98925
C           3.10042         5.08102         0.13442
C           4.11919         3.99093         0.24161
C           4.02035         2.64673         0.03545
C           5.02624         1.53936         0.56497
C           5.05008         0.65680         1.64060
N           3.93197         0.14045         2.35414
N           3.60224        -1.24186         2.00634
C           2.81195        -1.37229         0.77528
H           0.40973         0.61794        -0.49308
H           0.18436        -0.29862         0.82204
H           2.61120         0.21298        -0.60330
H           1.60902         1.97207         0.97481
H           4.49472         2.26809         3.56414
H           2.34333         3.96496         2.31436
H           4.90742         4.98239         3.76932
H           5.20738         7.45900         3.53180
H           3.96164         9.49141         2.94183
H           2.31675         9.51384         1.13377
H           1.87305         7.53454        -0.22576
H           2.29113         5.05135        -0.59213
H           5.03519         4.31045         0.71083
H           3.11519         2.33992        -0.47822
H           4.69897         0.82465        -0.20649
H           5.79252         0.70406         2.44597
H           3.11585        -1.73451         2.75830
H           2.07818        -2.18428         0.88796
H           3.47748        -1.74393        -0.02590

