%chk=NC1CNdC2CdCSCdCC1dNCdCN2S.chk
%NProcShared=20
# opt freq b3lyp/6-31g(2df,p)

Title Card Required 

0  1
N           3.05659         0.33904        -1.02997
C           4.59064         1.11855        -2.38868
C           3.20017         1.27850        -1.26320
N           5.09213         1.00698        -0.81990
C           5.49717         2.18085        -1.05516
C           6.85722         1.16257        -1.25915
C           7.48344         1.82002        -2.08306
S           9.09155         2.54117        -2.35191
C           8.70103         4.04615        -3.87278
C           8.63794         2.73186        -3.55903
C           6.47937         2.26283        -3.60341
N           6.74311         3.81468        -4.22209
C           6.03770         3.73157        -3.23956
C           4.82883         3.67460        -3.61622
N           4.47171         3.03751        -2.45023
S           2.60777         2.83182        -2.84640
H           1.96481        -0.00010        -0.03209
H           1.60183         0.04648        -1.06691
H           3.83007         0.54149        -1.01653
H           2.66224         2.14756        -0.68275
H           2.58153         0.69777        -2.40948
H           7.50009         0.66767        -0.70909
H           5.99829         2.02352        -2.36751
H           9.38805         4.49163        -4.53774
H          10.22010         3.40735        -3.63706
H           6.57543         3.30796        -2.02704
H           4.45217         4.29110        -4.39299
H           2.16483         3.63476        -3.70150

