%chk=NC1CCN[N]CdCCdCC2dCNdCCdC1NC2.chk
%NProcShared=20
# opt freq b3lyp/6-31g(2df,p)

Title Card Required 

0  2
N           3.78902         2.25870         0.91633
C           5.60294         3.67051         1.73086
C           3.87634         2.23129         1.19318
C           5.20718         1.02662         0.54779
N           5.89303         1.71834         1.53305
N           7.01940         2.33374         1.25147
C           7.39004         3.33771         1.96543
C           8.68659         3.38901         1.94734
C           9.71052         4.10590         2.33642
C          10.96081         4.40193         2.52239
C          11.47751         5.34741         3.41402
C          12.83679         5.55512         3.32540
N          12.66169         6.26328         4.41049
C          12.39979         6.62083         3.09878
C           9.92374         6.04264         2.82275
C           7.92429         5.10525         2.48521
N           8.53414         6.52259         3.66914
C          10.26080         7.04993         4.25129
H           2.69265         0.98081         0.43232
H           2.34752         1.51751         0.26955
H           4.52524         2.42892         1.13548
H           2.73668         1.32757         1.94822
H           2.66912         2.61836         0.02321
H           4.96217         1.28000        -0.42888
H           4.92074         0.30078         1.19022
H           4.92448         2.19976         2.39197
H           6.62712         4.30807         2.52111
H           9.15349         2.69086         1.49344
H          10.13339         4.64206         2.93431
H          11.37566         3.72592         2.09391
H          13.45721         4.92337         2.83438
H          14.28331         6.31265         3.41585
H          11.40165         6.94107         3.62643
H           8.85242         5.70145         3.48671
H          10.84489         7.04764         5.17481
H          10.78608         8.06970         3.50230

