%chk=Nc1ccc2c3c1CdCCd3CdCOOCdCCd2.chk
%NProcShared=20
# opt freq b3lyp/6-31g(2df,p)

Title Card Required 

0  1
N           1.18191        -0.21700        -0.05448
C           2.76907        -0.45605        -0.26723
C           3.47506         0.79418        -0.05749
C           4.88310         0.19767         0.63105
C           5.52366        -1.81041         1.05302
C           4.65800        -1.18872         0.20170
C           3.96742        -1.41740        -0.86296
C           5.95316        -1.54291        -1.21472
C           6.94026        -2.46018        -0.69906
C           5.14799        -2.26452        -0.40618
C           4.03384        -3.49574        -0.28465
C           4.49268        -4.61664        -0.61439
O           3.60102        -5.61532        -0.34351
O           4.44793        -6.37225        -1.00516
C           5.09138        -7.15157        -0.19066
C           5.98061        -5.76476         0.37198
C           5.85559        -3.60306         0.93466
H           0.61798         0.70282        -0.10918
H           0.51935        -0.98899         0.06171
H           2.83738         1.84853        -0.47820
H           5.03879         1.59470         0.78737
H           7.10585        -1.08750        -0.44075
H           7.53591        -3.40876        -0.24504
H           3.00625        -3.60770        -0.12984
H           5.89216        -4.50388        -0.81328
H           3.88824        -8.03364        -0.58528
H           6.07283        -7.09428        -0.41481
H           6.53291        -2.38435         1.07242

