%chk=NC1dCC2dCCdCCdCC2dCCdCdc2cqdOrc2dCCdCCdC1.chk
%NProcShared=20
# opt freq b3lyp/6-31g(2df,p)

Title Card Required 

0  1
N           0.76380        -0.30115         0.41791
C           1.90092        -0.60962         1.17928
C           2.95479         0.21091         0.71770
C           4.44184         0.53508         0.78408
C           5.11129         0.67762        -0.41045
C           6.53975         0.78679        -0.74800
C           7.60157         0.85788         0.06141
C           7.58926         0.96184         1.48830
C           6.54296         0.99375         2.32162
C           5.08918         0.88568         2.08816
C           4.33884         1.10505         3.21015
C           2.90787         1.16637         3.37307
C           2.14100         1.26388         4.41807
C           0.97394         1.33228         4.96614
C           0.59212         2.13965         6.11210
O           0.13149         3.16664         6.40786
C           0.39616         0.72502         6.16058
C           0.02292        -0.50043         6.50019
C           0.49234        -1.40589         5.49030
C           0.30150        -2.55517         4.86636
C           1.14896        -2.64796         3.42192
C           1.69350        -1.96271         2.22862
H           0.37204         0.63317         0.48543
H           0.49622        -0.86557        -0.39041
H           2.58180         1.21890         0.38823
H           4.54758         0.63205        -1.35013
H           6.78366         0.69820        -1.81509
H           8.60422         0.82809        -0.37828
H           8.58495         1.02527         1.93356
H           6.82455         1.12013         3.36607
H           4.84625         1.26098         4.15269
H           2.28095         1.07441         2.51841
H          -0.65425        -0.64766         7.34480
H           1.40892        -1.04965         5.06465
H          -0.24838        -3.32014         5.48787
H           1.36905        -3.73357         3.50749
H           2.23118        -2.65538         1.56624

