%chk=NC1dCCdCCdCNCCqdOrNdCO1.chk
%NProcShared=20
# opt freq b3lyp/6-31g(2df,p)

Title Card Required 

0  1
N           2.83338        -0.46635        -0.11904
C           4.95151        -1.02861        -0.20717
C           3.30537        -1.44482        -0.27243
C           4.89002        -1.39773        -0.26504
C           5.39580        -2.77044        -0.48025
C           6.82099        -3.08154        -0.52905
C           7.22661        -4.11217        -0.69058
N           8.26820        -3.84439        -0.64880
C           9.41248        -4.87741        -0.81058
C          10.31159        -3.04725        -0.52365
O          11.53695        -2.69926        -0.46909
N          10.50714        -4.41547        -0.73809
C           9.39097        -2.94386        -0.50694
O           7.19274        -1.83212        -0.33295
H           1.28724        -0.82403        -0.17511
H           1.47748         0.35408         0.00958
H           2.57349        -2.23516        -0.39633
H           5.61456         0.12644        -0.02610
H           4.65540        -3.40137        -0.57916
H           8.14742        -1.54941        -0.28855
H           6.75611        -4.80126        -0.79862
H           8.67973        -2.27068        -0.40270
H           9.38712        -5.26231        -1.83102
H           9.38711        -5.55612         0.04315
H          10.97227        -4.11634        -0.69126

