%chk=NC1dCCdCCdCCdCCdCCdNNdCCdCCdNCdC1.chk
%NProcShared=20
# opt freq b3lyp/6-31g(2df,p)

Title Card Required 

0  1
N           4.13291        -1.16374        -0.62564
C           7.06570        -2.01151        -1.05654
C           4.69426        -1.69841        -0.89739
C           5.45799        -0.97898        -0.53171
C           5.29552        -2.35540        -1.23131
C           7.28598        -3.06977        -1.59440
C           7.81955        -3.72095        -1.92542
C           8.87844        -3.18854        -1.65471
C           9.56845        -4.49882        -2.32076
C          11.25621        -4.39702        -2.26901
C          11.68182        -5.38988        -2.77367
C          12.96446        -5.65453        -2.90820
N          13.92250        -6.43304        -3.30388
N          15.02929        -6.76563        -3.47291
C          15.85645        -7.75536        -3.97598
C          16.29157        -6.96139        -3.57242
C          17.55140        -8.08523        -4.14364
C          17.60672        -6.96690        -3.57529
N          15.49489        -5.56054        -2.86139
C          12.88877        -4.36306        -2.24987
C          10.08912        -3.19246        -1.65775
H           2.03244        -0.88243        -0.48263
H           2.28077        -0.18922        -0.13029
H           2.74014        -1.91057        -1.00521
H           5.17861        -0.20523        -0.13843
H           4.74560        -3.03661        -1.57755
H           7.96756        -1.48751        -0.79018
H           6.96502        -4.04218        -2.08865
H          10.86642        -2.47920        -1.29425
H           9.14633        -5.12543        -2.63925
H          11.81684        -3.49770        -1.81191
H          11.36134        -6.13194        -3.15083
H          13.95056        -4.02329        -2.07909
H          15.54753        -8.29272        -4.24911
H          17.77309        -6.07322        -3.12098
H          17.82861        -9.17520        -4.69765
H          19.94018        -7.48909        -3.84065
H          14.92958        -5.18615        -2.66994
H           9.01816        -1.95085        -1.02569

