%chk=NC1dCC2dCCdNCdCCdc3ccccc3dCdCdC12.chk
%NProcShared=20
# opt freq b3lyp/6-31g(2df,p)

Title Card Required 

0  1
N           1.55256        -0.37302        -0.06008
C           3.30557        -0.67673        -0.23539
C           3.65051         0.66387        -0.11832
C           4.85879        -0.05496        -0.00231
C           6.04078         0.31389         0.14884
C           7.07921        -0.60096         0.55331
N           8.20389        -1.15314         0.89449
C           8.40029        -2.92639         0.80912
C           9.72522        -2.93640         0.78593
C          10.53877        -3.94999         0.14966
C          11.73452        -3.56559        -0.04504
C          12.83644        -4.87940        -0.04906
C          14.11998        -4.83358         0.32820
C          14.22924        -3.35916         0.24895
C          12.84086        -2.29904        -0.18970
C          10.84136        -2.11824        -0.84951
C           8.83079        -1.96610        -1.04836
C           7.13122        -1.84889        -1.00633
C           5.22523        -1.51265        -0.56323
H           0.72096         0.66773        -0.01571
H           0.59688        -0.94467        -0.02605
H           3.30916         1.84750        -0.00420
H           6.32685         1.24814         0.00303
H           7.16485        -1.63371         0.74258
H           7.86764        -3.73115         0.05319
H           9.89196        -1.55770         0.59867
H          10.25496        -4.92056         0.04271
H          12.43165        -5.86575        -0.15937
H          14.80136        -5.73216         0.54318
H          15.65817        -3.53607         0.51815
H          14.17042        -1.69158        -0.19898

