%chk=NC1dCCdC2NdCdC1CdCCdCCqdOrS2.chk
%NProcShared=20
# opt freq b3lyp/6-31g(2df,p)

Title Card Required 

0  1
N           0.62520        -0.03001         0.01311
C           1.94191         0.19342         0.34391
C           3.19627         1.15201         1.76314
C           4.93485         0.88126         1.36229
C           5.55792         1.46819         2.23125
N           6.66037         1.01184         1.55561
C           6.08940         0.30035         0.50223
C           4.17965        -0.26700        -0.33775
C           3.78283        -1.03314        -1.47204
C           2.70043        -0.70449        -0.98547
C           3.19401         0.36549         0.59867
C           1.63944         1.11012         1.70112
C           2.33812         2.21006         3.32962
O           1.56007         2.68051         4.02613
S           4.54290         2.29044         3.44862
H           0.08679         0.40977         0.66423
H           0.25062        -0.54206        -0.74499
H           2.92126         1.55154         2.35465
H           5.35731        -0.17061        -0.19504
H           4.69821        -0.85770        -1.21230
H           1.66127        -0.83605        -1.18025
H           3.92183         0.46404         0.74457
H           0.61427         1.12895         1.72899

