%chk=NC1dCCdCNdC2CdNCdCCdCCqdOrNdCC1dC2.chk
%NProcShared=20
# opt freq b3lyp/6-31g(2df,p)

Title Card Required 

0  1
N           0.95094        -0.11704         0.04083
C           2.08917         0.15463         0.77514
C           3.01312        -0.87662         0.75757
C           4.46818        -0.91981         0.76876
C           5.24954        -0.03506         1.40182
N           4.90662         1.04729         2.16634
C           4.21988         2.00324         1.62334
C           3.83148         3.24945         2.36275
N           3.79907         3.17429         3.63189
C           3.24160         4.24836         4.19735
C           3.18852         4.27797         5.53738
C           2.39758         5.29315         6.18425
C           1.53988         4.45976         6.72590
C           0.59992         4.00514         5.33072
O          -0.28099         4.87499         5.54172
N           0.89549         3.40053         3.71249
C           1.32760         2.66813         2.51198
C           2.38724         1.59237         1.27038
C           3.39012         1.95881         0.40905
H           0.39355        -0.82634         0.49969
H           0.43173         0.65559        -0.37178
H           2.58563        -1.86562         0.94513
H           4.98125        -1.72856         0.20633
H           6.32516        -0.14958         1.35089
H           3.29846         4.02457         1.74325
H           2.59729         4.95255         3.65044
H           3.25186         3.27783         6.02345
H           1.89593         6.03423         5.52216
H           1.87786         4.05470         7.72683
H           1.03378         3.32532         1.63040
H           4.08511         2.62099        -0.18186

