%chk=NCC1dCNdCCdCNdCCdCNNdCCdC1.chk
%NProcShared=20
# opt freq b3lyp/6-31g(2df,p)

Title Card Required 

0  1
N           1.80016        -0.48209         0.44571
C           3.63657        -1.38958         1.51851
C           5.09444        -2.77816         3.15610
C           4.51097        -1.61349         1.76757
N           5.34055        -2.13771         2.37394
C           6.48649        -2.02996         2.21651
C           7.12466        -2.73379         3.15413
C           8.21917        -3.18349         3.58659
N           8.70934        -3.90627         4.48684
C           9.88571        -4.11649         4.73383
C          10.34397        -4.96869         5.74415
C          11.70080        -4.77319         5.51300
N          11.84340        -5.86493         6.80817
N          12.80844        -6.19638         7.20210
C          10.87143        -5.97221         6.93779
C           8.64585        -4.99291         5.77720
C           6.90639        -4.06934         4.68285
H           0.89100         0.37161        -0.61723
H           0.72711         0.20043         0.87472
H           3.15999         0.12793         0.64625
H           3.16049        -0.80576        -0.13496
H           5.01262        -0.69678         0.67503
H           6.89878        -1.50794         1.64081
H           6.33943        -3.23987         3.70921
H           8.76577        -2.70537         3.05249
H          10.50754        -3.69612         4.23342
H           8.98692        -5.81397         6.74589
H          12.60670        -5.04081         5.83056
H          11.12234        -6.81009         7.92982
H          12.15462        -6.91912         8.05972
H          10.00709        -5.87412         6.81997
H           5.37693        -3.87015         4.44018

