%chk=Ndc1cccnccccnccc2cccc3c2c1-3.chk
%NProcShared=20
# opt freq b3lyp/6-31g(2df,p)

Title Card Required 

0  1
N           6.31239         0.26956        -3.15336
C           8.09485        -0.10478        -4.24520
C           5.82336        -0.32880        -3.01016
C           5.04772        -0.78421        -1.29017
C           5.55816        -1.50418        -2.58619
N           7.06069        -1.39514        -2.38125
C           7.48231        -1.91701        -3.88812
C           8.90934        -1.53175        -3.74514
C           9.21150        -1.60833        -5.02425
C          10.50624        -2.08669        -4.63196
N          11.15213        -2.44897        -6.09867
C          12.48485        -2.55050        -5.81907
C          13.03356        -2.68552        -7.66632
C          13.73635        -1.74083        -7.50815
C          15.45997        -1.71810        -6.31296
C          16.80366        -2.20186        -6.38113
C          15.08279        -1.28204        -6.82892
C          13.00852        -0.77327        -6.21827
C          11.93094        -0.85072        -6.80488
C          10.52799        -0.37023        -5.39728
H           4.75090         0.23682        -2.25962
H           3.96383        -0.55421        -2.61232
H           5.00207        -0.09391        -0.33636
H           4.58361        -1.17104        -3.70539
H           6.69130        -1.35236        -4.74490
H           9.14258        -0.82981        -2.91932
H           8.79981        -1.60149        -6.00334
H          11.24982        -1.20681        -4.11072
H          13.22888        -1.63105        -5.04338
H          12.88923        -2.22568        -8.64525
H          15.16089        -1.10225        -5.45268
H          17.31951        -2.50730        -5.46316
H          16.88397        -1.83772        -7.29820

