%chk=NdC1CdC2NdNCdCqCdOrCdC2NdNCdN1.chk
%NProcShared=20
# opt freq b3lyp/6-31g(2df,p)

Title Card Required 

0  1
N           0.80222        -0.08561        -0.08436
C           2.07052        -0.33294        -0.17751
C           3.08311         0.84107         0.25986
C           4.44970         1.01411         0.32451
N           5.03181         2.19119         0.76371
N           6.24151         2.51861         0.88236
C           7.40652         1.82707         0.62199
C           7.60172         0.58797         0.16130
C           8.95307        -0.00032        -0.05453
O          10.00464         0.57881         0.16092
C           6.56358        -0.30327        -0.16783
C           5.27565        -0.08637        -0.08252
N           4.44349        -1.04335        -0.40464
N           4.54827        -2.14197        -0.86288
C           3.21438        -2.42900        -0.95955
N           2.22118        -1.63809        -0.66214
H           0.61237         0.84844         0.26403
H           2.50460         1.71087         0.58542
H           8.30644         2.40758         0.83503
H           8.93525        -1.04242        -0.43888
H           6.84571        -1.28823        -0.52965
H           3.02684        -3.44974        -1.33584

