%chk=Ndc1cncnc2cnccccnc-2c1.chk
%NProcShared=20
# opt freq b3lyp/6-31g(2df,p)

Title Card Required 

0  1
N           2.59425         0.12523        -0.29361
C           4.42973         0.33553        -0.70194
C           3.23831         0.74779        -1.49500
N           4.38270         0.88895        -1.76741
C           5.01936         1.37481        -2.70487
N           6.16120         1.55078        -3.04449
C           7.09656         1.90037        -3.71954
C           8.36312         1.69725        -3.32909
N           8.56147         2.27579        -4.45699
C           9.79458         1.60301        -3.21866
C           9.92440         2.77206        -5.43878
C          11.56351         2.41391        -4.68925
C          11.17544         2.66864        -5.76782
N          10.05778         2.32846        -4.20549
C           8.15444         1.51697        -2.93814
C           6.63152         0.79076        -1.59254
H           1.02791         0.29000        -0.61164
H           2.35411         0.99719        -1.97623
H           4.38352         1.68141        -3.29654
H           9.23352         1.03823        -2.05534
H          11.21788         1.67542        -3.28714
H          10.25194         3.39346        -6.58853
H          12.93966         2.49577        -4.86682
H          12.29938         3.63635        -6.77971
H           5.59915         0.21324        -0.45472

