%chk=NdC1CdC2CdNC3dNCdCCdCCdC3NC12N.chk
%NProcShared=20
# opt freq b3lyp/6-31g(2df,p)

Title Card Required 

0  1
N           1.35545         0.32441         0.32590
C           2.63584         0.15356         0.40659
C           3.42401        -1.02839         0.10876
C           4.42366        -0.22665        -0.28714
C           5.81041        -0.48674        -0.51437
N           6.35258         0.57788        -0.98528
C           7.41653         0.86539        -0.22409
N           8.48626         0.53175        -0.87235
C           9.78632         0.44312        -0.58698
C          10.37538        -0.14683         0.46322
C           9.65550        -0.61982         1.60842
C           8.65384        -0.02536         2.29579
C           7.82439         1.24095         2.11196
C           6.85431         1.40189         1.13277
N           5.22397         1.42609         1.35337
C           3.97880         1.10608         0.29320
N           3.68698         2.14529        -0.72442
H           0.88198        -0.58366         0.14723
H           3.29104        -2.10467         0.09968
H           6.27418        -1.27614         0.10677
H          10.42244         0.63888        -1.45118
H          11.44422        -0.38139         0.38988
H          10.02629        -1.60140         1.93339
H           8.39909        -0.54493         3.21649
H           8.64706         1.99326         2.08704
H           4.97779         2.28331         1.85752
H           2.79218         2.62553        -0.55870
H           3.46603         1.70623        -1.63130

