%chk=NdC1CdCCdCCdCdNCqdOrNNNN2NdCCdCdC12.chk
%NProcShared=20
# opt freq b3lyp/6-31g(2df,p)

Title Card Required 

0  1
N           6.33428         1.92102         0.72198
C           8.06955         2.95483         0.59714
C           5.78022         2.34179         0.02593
C           4.86377         1.17267        -1.04886
C           5.32559         2.30133        -1.68343
C           6.67246         2.30931        -1.69074
C           7.41487         3.37151        -2.17955
C           8.74416         3.38397        -2.16544
N           9.94124         3.37417        -2.15972
C          10.65730         4.21224        -1.34521
O          10.09463         4.99108        -0.53517
N          12.09952         4.12113        -1.36002
N          12.63049         4.96757        -0.64880
N          14.01288         4.58720        -0.35267
N          12.42100         4.69747         0.94712
N          13.68006         6.29592         0.80896
C          14.99225         7.38492         1.30403
C          14.30243         6.06855         1.77897
C          12.38310         4.97200         1.49327
C          10.38102         3.89330         1.03795
H           4.75689         1.29899         0.52719
H           4.08553         2.12066        -0.50974
H           5.06455         0.24316        -0.43704
H           4.66054         3.06497        -1.98204
H           7.12424         1.49650        -1.03126
H           6.81205         4.12618        -2.67797
H          12.70530         3.59557        -1.89999
H          11.50557         4.56890         0.04516
H          14.48715         5.12051        -1.33091
H          15.02243         8.79210         1.49370
H          15.81738         7.00161         1.90750

