%chk=NdC1CdCSCdCCdCCCqdOrN1.chk
%NProcShared=20
# opt freq b3lyp/6-31g(2df,p)

Title Card Required 

0  1
N           2.73536         0.27620        -0.00690
C           4.58498         0.35552        -0.02101
C           3.34205         1.49620        -0.22378
C           4.57498         1.72688        -0.26479
S           5.28539         3.15031        -0.51784
C           6.90906         2.91149        -0.47538
C           7.64616         3.90511        -0.65202
C           8.85708         3.32207        -0.54837
C           9.62105         4.48053        -0.75432
C          10.69429         2.99710        -0.49074
C           8.84756         1.62977        -0.24761
O          10.23059         2.86843        -0.46751
N           6.72980         0.84902        -0.10876
H           1.28184         0.75495        -0.09201
H           2.64782         2.31716        -0.36973
H           5.46224         1.40086        -0.20682
H           7.46503         2.09513        -0.33022
H           7.63476         4.91535        -0.83161
H          10.00098         1.78640        -0.27533
H          10.08151         5.36810        -0.91211
H          11.96977         3.24584        -1.40241
H          11.96975         3.54484         0.27958
H           6.04236        -0.16107         0.07083

