%chk=Ndc1s[nH]c2cqc3[nH]c1dCCdCCd3rCS2.chk
%NProcShared=20
# opt freq b3lyp/6-31g(2df,p)

Title Card Required 

0  1
N           4.66621         0.17088         0.22748
C           5.59667         1.44213        -0.01030
S           3.73843         1.63622        -0.99327
N           4.94154         0.94295        -1.80764
C           5.53765         2.09752        -2.22143
C           6.86599         2.09627        -2.28537
C           7.90339         0.60700        -1.49631
N           7.68343         0.34165        -0.17966
C           7.72467         1.89220        -0.40693
C           9.13492         2.55264        -1.09036
C          10.87180         2.01155        -1.57231
C           9.79346         1.57045        -2.22497
C           9.31254         0.46661        -1.22358
C           7.21529         3.38866        -2.96580
S           5.20773         3.61318        -3.06638
H           3.32162         0.18723        -0.09200
H           5.26263         0.00022        -0.94424
H           6.84288        -0.22839         0.08989
H          10.24618         3.26995        -2.10485
H          11.64464         1.30713        -1.11526
H           9.26955         2.75374        -2.95568
H           9.92708         0.06283        -0.23693
H           7.83757         2.82677        -3.70517
H           7.90857         4.07471        -2.34512

