%chk=NdC1CdCCNCdNCNdNNdC1.chk
%NProcShared=20
# opt freq b3lyp/6-31g(2df,p)

Title Card Required 

0  1
N           2.89284        -0.28388         0.29988
C           4.09801         0.22498        -0.14354
C           3.43957         1.22156        -1.01872
C           4.61138         1.62345        -1.37026
C           5.25589         2.50489        -2.14186
N           6.60544         2.24296        -1.91249
C           7.37647         3.01255        -2.58634
N           8.54091         2.80131        -2.40140
C           9.75081         3.20913        -2.75874
N          10.11891         2.08150        -1.77069
N           9.19938         1.15896        -0.97464
N           7.59139         0.47283        -0.33767
C           6.10084         0.01833         0.01951
H           1.96118         0.23562        -0.15530
H           2.50582         1.61305        -1.36122
H           5.39911         1.17754        -0.98017
H           4.97280         3.38474        -1.59217
H           4.97281         2.07639        -3.08667
H           7.11266         1.55290        -1.30854
H           6.97320         3.73981        -3.22299
H           9.85464         4.31156        -2.53744
H           9.85464         3.13591        -3.88034
H           6.25155        -0.78699         0.73877

