%chk=NdCc1ccccccnc2c1SSS2.chk
%NProcShared=20
# opt freq b3lyp/6-31g(2df,p)

Title Card Required 

0  1
N           3.15016        -0.82029         0.85293
C           4.94670        -1.50625         1.52068
C           7.00477        -2.72194         2.70411
C           5.77173        -1.50402         1.51851
C           5.60841        -2.55630         2.54286
C           6.82928        -1.57408         1.58671
C           8.24921        -2.30965         2.30276
C           9.37779        -2.43194         2.42180
C           8.18125        -3.19365         3.16329
N          10.16269        -3.43727         3.40045
C          11.06427        -4.45704         4.39315
C           9.22916        -3.56524         3.52502
S          11.66953        -4.40621         4.34366
S          13.71972        -5.87680         5.77521
S          13.42714        -4.42823         4.36510
H           1.74265        -0.06413         0.11685
H           3.87459        -0.44911         0.49160
H           5.19201        -0.40857         0.45215
H           4.53192        -2.60604         2.59128
H           7.29411        -1.04193         1.06869
H           7.09225        -3.54759         3.50784
H           9.43302        -1.85691         1.86204
H           8.57247        -4.41818         4.35532

