%chk=NdCc1cccccc2cscncc1-2.chk
%NProcShared=20
# opt freq b3lyp/6-31g(2df,p)

Title Card Required 

0  1
N           3.07273        -0.79859        -0.97685
C           4.75565        -1.33626        -1.68211
C           6.61461        -2.34701        -3.00789
C           5.83109        -1.29386        -1.62649
C           5.93178        -2.10698        -2.69304
C           7.21501        -1.35778        -1.71033
C           8.10146        -2.17632        -2.78399
C           9.17549        -1.99628        -2.54784
C           9.76823        -2.55886        -3.28576
C          10.84504        -2.67484        -3.43789
S           9.98835        -4.25625        -5.51220
C          12.22089        -3.45010        -4.45478
N          12.41007        -4.30192        -5.57210
C          10.99250        -3.53642        -4.56801
C           8.85594        -3.08013        -3.96950
H           1.88226        -0.13443        -0.10569
H           3.94536        -0.43047        -0.49399
H           5.38063        -0.39613        -0.44896
H           4.73085        -2.32594        -2.98025
H           7.46579        -0.74475        -0.90623
H           7.27897        -3.09783        -3.99272
H           9.55993        -1.54779        -1.95956
H          11.83832        -2.46551        -3.16332
H          13.85710        -3.46334        -4.47215
H          12.46215        -4.21296        -5.45541

