%chk=NdCN1CdCCdCCdCCdCCdCc2ccccc2CdCCdCCdC1.chk
%NProcShared=20
# opt freq b3lyp/6-31g(2df,p)

Title Card Required 

0  1
N           2.03454         0.18647        -1.17158
C           3.52212         0.36772        -2.16219
N           4.88610         0.39140        -3.76299
C           4.82943        -0.05152        -1.99627
C           5.60233        -0.92483        -2.47963
C           6.92243        -0.57150        -2.43559
C           7.57761        -0.81671        -3.54665
C           8.98683        -0.77778        -3.61881
C           9.69403        -1.04088        -4.72228
C          11.15092        -1.04530        -4.76671
C          11.87876        -1.30891        -5.86481
C          13.33743        -1.32730        -5.87611
C          14.08122        -1.69602        -6.92366
C          15.54064        -1.60074        -7.01423
C          16.28980        -2.21508        -6.00168
C          17.64142        -1.97646        -5.83871
C          18.32218        -1.34735        -6.84554
C          17.62053        -0.96901        -8.00835
C          16.17865        -0.95938        -8.07913
C          15.16303        -0.20324        -9.25934
C          13.52883         0.07657        -9.09262
C          11.54216         0.49654        -9.00249
C           9.82635         0.48312        -8.07244
C           7.93645         0.39487        -6.75807
C           6.41638         0.39489        -5.39680
H           1.25883         0.19722         0.11437
H           3.40319         0.26966        -0.56830
H           5.15251         0.05697        -0.69230
H           5.06355        -1.34713        -3.31057
H           7.33655        -0.27602        -1.51479
H           7.00631        -1.09984        -4.42423
H           9.50086        -0.56064        -2.69867
H           9.15063        -1.26272        -5.63556
H          11.68848        -0.83073        -3.84804
H          11.34406        -1.52195        -6.78741
H          13.88568        -1.08057        -4.98105
H          13.54657        -2.01394        -7.81876
H          15.79586        -2.88084        -5.31182
H          18.17327        -2.28169        -4.94970
H          19.38335        -1.17153        -6.70865
H          18.23045        -0.68341        -8.85037
H          16.00845         0.22233        -9.91942
H          13.47969        -0.60292        -8.38269
H          12.57962         0.75124       -10.20762
H          10.76268        -0.19631        -9.08880
H           8.23527         0.57951        -8.25262
H           5.03201         0.00882        -5.28601

