%chk=NNdC1CdCNCdCCdCCdCNNN[N]1.chk
%NProcShared=20
# opt freq b3lyp/6-31g(2df,p)

Title Card Required 

0  2
N           2.56791         0.65296        -0.80735
N           4.37597         1.38422        -1.73064
C           5.92311         2.06490        -2.64776
C           5.23712         1.16268        -1.03402
C           5.84874         2.31761        -1.12901
N           7.14120         2.02519        -0.95426
C           7.93699         3.01055        -1.40741
C           9.16514         2.79044        -1.76844
C           9.75373         3.87915        -2.40344
C          11.08361         3.86481        -2.43137
C          11.74245         5.06392        -2.92624
C          13.08746         5.12034        -3.20675
N          13.35517         5.87896        -4.28994
N          12.21134         4.33307        -4.79863
N           9.98875         3.66136        -4.38277
N           7.80417         2.84450        -3.55300
H           1.60438        -0.15857         0.08467
H           1.11271         0.77745        -0.60764
H           5.28104         0.23276        -0.16082
H           4.76174         3.02036        -1.87664
H           7.36978         1.02759        -0.74551
H           7.82493         4.15069        -2.10972
H           9.57293         1.90236        -1.49199
H           9.10314         4.63495        -3.25378
H          11.63566         2.97628        -2.24851
H          11.01515         5.82017        -3.74583
H          13.73744         4.17611        -3.07736
H          13.23658         6.68803        -4.97966
H          13.75352         4.57104        -4.77050
H          10.97309         4.76187        -4.72736

