%chk=NNn1cnccnccqdSrcn1.chk
%NProcShared=20
# opt freq b3lyp/6-31g(2df,p)

Title Card Required 

0  1
N           1.23131         0.22306        -0.45427
N           3.05602         0.35225        -1.09452
N           4.38271         1.20051        -2.39386
C           4.76969         0.58404        -1.22294
N           5.77477         0.79314        -1.86988
C           6.98954         0.71857        -1.82489
C           7.46896         0.87921        -3.04736
N           8.71868         1.06044        -2.88668
C           8.61912         1.46535        -4.06123
C           9.82904         2.07564        -4.19265
S          11.25241         1.45501        -3.34813
C           7.73225         2.52523        -3.99745
N           6.06401         1.94145        -3.58244
H           0.91950        -0.21902         0.58438
H           0.69069        -0.54065        -0.92270
H           3.27734        -0.01991         0.02600
H           5.17085         0.10821        -0.29231
H           7.35980         0.40564        -0.93014
H           6.92773         1.29382        -4.53576
H           8.04695         2.09404        -5.51816
H           9.14599         2.36434        -5.13791

