%chk=NNNNNCN1NCC2dCCdCCdCqCdSrC1dCCdCNdC2.chk
%NProcShared=20
# opt freq b3lyp/6-31g(2df,p)

Title Card Required 

0  1
N           1.06061        -0.04201         0.07719
N           2.48251        -0.03787         0.09122
N           2.98712        -1.30684         0.60589
N           4.52878        -1.26000         0.58014
N           5.61517        -2.72704         1.12254
C           7.71520        -2.67954         0.98692
N           9.75482        -3.50606         0.88142
N           8.37372        -4.12208         1.76643
C           8.39941        -5.41964         2.26891
C           9.65769        -5.93389         2.47191
C          10.21115        -6.98618         2.91300
C          11.45942        -7.33609         3.06436
C          12.29200        -8.19466         3.41259
C          13.41752        -7.22911         2.98792
C          13.26773        -5.70700         2.20140
C          14.43351        -7.55814         3.09002
S          15.07963        -9.49852         3.92457
C          11.87371        -4.21674         1.25003
C          11.95849        -2.35534         0.70441
C          10.90950        -1.39558         0.67002
C          11.40627        -2.43640         1.58105
N          10.50905        -3.78509         2.51266
C          10.66746        -5.13525         2.29509
H           0.70450         0.85323        -0.27607
H           0.70417        -0.15531         1.02861
H           2.82656         0.73453         0.66959
H           2.60807        -2.03225        -0.00920
H           4.73466        -0.49135         1.20043
H           4.75195        -3.29683         0.55516
H           7.01764        -1.73956         1.75411
H           6.99694        -2.42284         0.01692
H           8.53355        -3.44090         2.52966
H           7.94663        -6.11379         1.59737
H           7.94719        -5.44487         3.24646
H           9.58161        -7.68362         3.20231
H          11.92444        -6.55907         2.75935
H          11.73341        -9.05996         3.76081
H          14.16343        -6.24997         2.64996
H          15.77407        -8.33706         3.46267
H          12.71172        -1.04543         0.47175
H           9.88515        -1.03802         0.49533
H          12.98882        -2.95333         1.50651
H          11.67097        -5.34811         2.29955

