%chk=NSC1dCCdCCdCCdCCdCNdCCdCCdC1.chk
%NProcShared=20
# opt freq b3lyp/6-31g(2df,p)

Title Card Required 

0  1
N           2.11437        -0.58016         0.38625
S           4.29503        -2.13816         1.08011
C           6.08172        -4.39846         2.09287
C           5.49818        -2.56000         1.25494
C           5.16524        -3.58037         1.71608
C           6.89312        -3.05333         1.47811
C           7.64249        -4.24472         2.01858
C           8.68302        -4.64220         2.19964
C           9.42212        -5.76706         2.70976
C          10.44591        -5.80862         2.72983
C          10.84259        -6.63654         3.10334
C          11.86788        -7.11715         3.32341
N          11.16968        -8.93266         4.14727
C          13.10184        -9.22727         4.28104
C          13.45169       -10.65294         4.92826
C          12.53195        -8.94382         4.15284
C          10.14713        -7.65641         3.56968
C           8.09480        -6.27513         2.94309
H           0.96976         0.66842        -0.22316
H           0.76222        -0.07373         1.00617
H           5.50203        -1.03117         0.55967
H           3.51736        -3.24220         1.56036
H           7.34166        -2.31770         1.14441
H           7.26823        -5.11593         2.41449
H           9.15071        -3.95080         1.88581
H           8.60571        -7.19692         3.35907
H          11.05582        -5.38797         2.53820
H           9.19467        -7.89752         3.67622
H          12.81714        -6.99339         3.26705
H          14.63064        -8.55724         3.97689
H          13.41954       -12.30915         5.68006
H          14.36367        -9.63220         4.46489
H          12.09836        -8.18599         3.80846
H           6.35882        -6.21022         2.91152

