%chk=NSC1dCCdCCdCCdCCdCCdCCdCCdN1.chk
%NProcShared=20
# opt freq b3lyp/6-31g(2df,p)

Title Card Required 

0  1
N           2.35062        -0.32563         0.86549
S           4.46687        -1.20950         2.51959
C           6.53606        -2.26463         4.55817
C           5.86219        -1.35594         2.77283
C           5.53573        -1.87858         3.78791
C           6.97026        -1.53310         3.11395
C           7.97095        -2.36177         4.73127
C           9.03817        -2.32998         4.67398
C           9.63927        -2.85019         5.68759
C          10.67310        -2.91914         5.82605
C          10.71133        -3.36615         6.69565
C          12.19083        -3.60510         7.16593
C          12.15785        -4.08018         8.09239
C          13.82555        -4.50917         8.93289
C          14.19238        -5.22103        10.32411
C          12.88603        -4.61322         9.13845
C          10.41486        -3.93365         7.81386
N           8.51094        -3.18354         6.34971
H           1.18981         0.27198        -0.43304
H           0.90180         0.49740         0.84901
H           5.56155        -0.55388         1.20110
H           4.48266        -1.93564         3.90049
H           7.45964        -1.14872         2.36529
H           6.74331        -2.85196         5.69224
H           9.20255        -1.94168         3.91482
H           8.71230        -3.65567         7.26167
H          11.17705        -2.67778         5.35359
H           9.38136        -4.05044         8.03460
H          12.99461        -3.45977         6.88200
H          11.36926        -4.91952         9.73383
H          14.77222        -4.23960         8.40617
H          13.65230        -5.72382        11.30689
H          14.88057        -4.85423         9.60777
H          11.96087        -4.59546         9.10433

