%chk=NSCC1d[SH]qdSdOrCqdOrCd[SH]1.chk
%NProcShared=20
# opt freq b3lyp/6-31g(2df,p)

Title Card Required 

0  1
N           0.97011         0.01716        -0.04280
S           2.60578        -0.18679         0.07528
C           3.09068        -0.03977        -1.66804
C           4.58520         0.06606        -1.71163
S           5.61120         1.49234        -1.72539
S           5.29974         2.41828        -0.16857
O           3.88943         2.88817        -0.06187
C           7.16105         0.76353        -1.69026
O           8.19178         1.41262        -1.67882
C           7.13631        -0.72011        -1.71586
S           5.51958        -1.51701        -1.77478
H           0.56256         0.08701         0.89144
H           0.53176        -0.79464        -0.47323
H           2.70414         0.88322        -2.11673
H           2.74327        -0.89679        -2.24741
H           5.33335         2.19656        -2.83365
H           8.09744        -1.24997        -1.70269
H           5.41214        -1.90293        -0.52000

