%chk=NtCC1dCCdCNdCq[SH]dCdCSrC1.chk
%NProcShared=20
# opt freq b3lyp/6-31g(2df,p)

Title Card Required 

0  1
N           1.02637         0.05877         0.07649
C           2.28734         0.05877         0.07649
C           3.80734         0.05877         0.07649
C           4.41906         1.24600         0.09020
C           5.82974         1.48599         0.06896
C           6.84905         0.61940         0.06895
N           6.91930        -0.73896         0.09780
C           5.90833        -1.54289         0.08689
S           6.21634        -3.36644         0.18858
C           7.79532        -3.40789         0.01795
C           9.08051        -3.59175         0.00353
S          10.14421        -2.56175        -0.87001
C           4.41942        -1.29246         0.01851
H           3.80872         2.15194         0.10503
H           6.08776         2.54647         0.06172
H           7.84083         1.07615         0.06564
H           5.80355        -3.73769        -1.00456
H           9.50621        -4.39997         0.58809
H           9.25473        -1.69655        -1.37895
H           3.98508        -1.87087         0.84657
H           4.08073        -1.76443        -0.91390

