%chk=OC1dCC2NCdCNdCCdCCdCCdCSCqOrNNN12.chk
%NProcShared=20
# opt freq b3lyp/6-31g(2df,p)

Title Card Required 

0  1
O           3.05137        -0.76584        -0.95444
C           4.82068        -1.44465        -1.67363
C           3.97916         0.13154        -0.75179
C           5.50603        -1.07579        -0.99587
N           5.67191         0.34343        -1.31351
C           6.72296        -0.46528        -1.36529
C           7.41517        -0.59928        -2.47910
N           8.39807        -1.62031        -2.57169
C           9.13506        -1.56967        -3.61846
C          10.45317        -2.49140        -3.72544
C          11.06001        -2.48646        -4.86781
C          12.43618        -3.08568        -4.76915
C          13.05985        -3.19569        -5.94402
C          14.45202        -3.91343        -5.68314
C          14.52288        -4.16416        -6.88849
S          15.70672        -5.83598        -7.17215
C          13.31175        -4.77664        -6.85956
O          15.53608        -4.65948        -7.85596
N          11.06395        -4.28638        -5.43525
N           8.80184        -3.44247        -3.95893
N           6.63575        -2.33109        -2.55357
H           1.78381         0.09992        -0.42644
H           3.51951         1.69573        -0.16762
H           5.32798        -0.18227         0.45556
H           5.10782         0.78139        -2.04124
H           6.80944        -1.50695        -0.53655
H           7.01087        -0.10098        -3.30283
H           8.87480        -1.02792        -4.48810
H          10.49070        -3.40137        -3.03101
H          10.79510        -1.99598        -5.72858
H          12.41122        -4.27168        -4.13405
H          12.72133        -2.93091        -6.97792
H          14.36743        -5.25412        -5.36780
H          14.56104        -3.73953        -8.21991
H          14.50224        -5.29799        -8.13439
H          17.07774        -4.34080        -8.20307
H          12.47413        -5.01142        -5.76270
H           8.01398        -3.62834        -2.69101

