%chk=OC1dCCdCCdC2CdCCdCCdCCdCCdC12.chk
%NProcShared=20
# opt freq b3lyp/6-31g(2df,p)

Title Card Required 

0  1
O           1.35222        -0.31382         0.03935
C           3.13773        -1.09979         0.08986
C           3.23719         0.72329         0.03797
C           4.52229         1.49146         0.02966
C           5.55441         0.68313         0.02713
C           5.59061        -0.70499         0.02675
C           4.65917        -1.61073         0.05138
C           5.16857        -2.89451        -0.06011
C           6.40534        -3.26777        -0.01241
C           6.83372        -4.77812        -0.14717
C           8.06223        -4.89969        -0.31345
C           7.03277        -6.18847        -0.97282
C           8.41528        -6.34242        -0.35014
C           8.43979        -7.74346         0.28368
C           7.23043        -6.41128         0.84038
C           5.31277        -4.79159         0.72247
C           4.23241        -3.08816         0.42555
H           0.76016         0.75752         0.03101
H           2.50005         1.97754         0.03415
H           4.75651         2.56956         0.02025
H           6.53506         1.07975         0.03328
H           6.50272        -1.16084         0.03549
H           4.77076        -4.06521        -0.46044
H           7.11200        -2.62122         0.03628
H           5.73752        -6.09394         0.04237
H           8.86178        -4.42165         0.06866
H           6.82297        -7.56278        -0.22624
H           9.89718        -6.39239        -0.00822
H           8.84216        -9.24974         0.02602
H           8.69605        -7.42385         0.38821
H           3.78950        -4.53465         0.20708

