%chk=OCC1dCCdCCdCCdCOCdCCdC2CdC21.chk
%NProcShared=20
# opt freq b3lyp/6-31g(2df,p)

Title Card Required 

0  1
O           2.47957         0.90187        -0.55940
C           4.31357         2.03317        -1.41027
C           5.91687         3.69473        -2.65995
C           5.44664         2.19749        -1.53385
C           5.17264         3.19862        -2.28682
C           6.77465         2.55819        -1.80514
C           7.43595         3.98711        -2.87986
C           8.60179         3.90662        -2.81932
C           9.48590         4.90939        -3.57352
C          10.92771         4.92000        -3.58149
O           9.85798         5.20767        -3.79785
C          11.46927         6.21534        -4.55574
C          10.59064         7.67441        -5.65313
C          11.13048         6.41916        -4.70903
C           9.18778         6.87343        -5.05070
C           9.76482         6.29416        -4.61502
C           7.89455         5.31060        -3.87527
H           1.42955        -0.06718         0.16943
H           3.59327         0.46653        -0.89320
H           3.59327         1.10181        -0.04855
H           5.16453         0.90524        -0.56193
H           4.02030         3.28394        -2.35099
H           7.06898         1.78187        -1.22126
H           6.11910         4.82922        -3.51322
H           8.82913         3.21706        -2.30069
H           8.40504         6.10636        -4.47378
H          10.61255         4.31889        -3.12940
H          12.69692         5.79049        -4.23620
H          11.40027         8.44907        -6.23576
H          12.91902         6.98979        -5.13821
H          11.63261         7.24529        -5.33038

