%chk=OCC1CdCCdCCdCCdCCdC2CdC2CC1.chk
%NProcShared=20
# opt freq b3lyp/6-31g(2df,p)

Title Card Required 

0  1
O           1.29688        -0.33543        -0.16794
C           3.13504        -0.85487        -0.70857
C           4.58421        -2.29046        -1.88208
C           4.75375        -1.40190        -0.61641
C           5.41607        -2.48717        -0.89761
C           6.76713        -2.31144        -1.06369
C           7.53452        -3.31247        -1.42057
C           8.84908        -3.17979        -1.70348
C           9.62248        -4.13968        -2.04269
C          10.95249        -4.03456        -2.20230
C          11.67856        -5.06375        -2.30393
C          12.99171        -5.09377        -2.69071
C          12.34316        -6.16581        -3.12262
C          12.54014        -6.10426        -4.35371
C          10.68030        -5.52921        -4.10515
C           8.51006        -4.82630        -3.64140
C           6.31673        -3.58829        -2.93812
H           0.82781         0.60971         0.43159
H           2.95733        -0.34131         0.74210
H           2.93153         0.58440        -0.62091
H           3.32145        -2.49505        -0.92751
H           5.01405        -0.42491        -0.21343
H           4.91098        -3.69643        -1.25207
H           7.16790        -1.41706        -0.74676
H           7.18000        -4.35574        -1.73297
H           9.36139        -2.39665        -1.32311
H           9.10366        -5.07653        -2.04560
H          11.58520        -3.34187        -1.88263
H          10.79713        -5.87127        -2.43541
H          13.85019        -4.50055        -2.46601
H          14.14842        -6.28982        -3.91131
H           9.11570        -6.23630        -3.40076
H           9.32680        -5.87351        -4.40444
H           4.86903        -3.56043        -3.05114
H           5.26160        -2.69455        -3.25604

