%chk=OCC1NCdCCdCCdCCdC1c1nccc2c1CNC2.chk
%NProcShared=20
# opt freq b3lyp/6-31g(2df,p)

Title Card Required 

0  1
O           1.16889        -0.11356         0.24997
C           2.71583        -0.44633         0.30787
C           3.74273        -1.48591         1.64839
N           4.75036        -0.57951         1.43715
C           5.40188        -0.70253         2.55387
C           6.67599        -0.92274         2.40928
C           7.23598        -1.23283         3.64206
C           8.55247        -1.39652         3.66029
C           8.87741        -2.32983         4.68841
C           8.50570        -3.24374         3.69692
C           6.61421        -3.39566         3.15481
C           4.79450        -2.98016         2.46347
C           2.82993        -3.02947         2.07408
N           1.56926        -2.27887         1.17330
C          -0.24280        -2.27660         0.87741
C          -1.32562        -3.03559         1.39479
C          -0.50059        -3.71641         2.21610
C           1.29848        -3.54411         2.35506
C           1.40942        -4.58904         3.29198
N           0.23626        -5.27209         3.78378
C          -1.04302        -4.85257         3.20193
H           0.88896         0.33555        -0.59048
H           2.98414         0.65913         0.32359
H           2.92684        -0.73287        -0.71289
H           3.03736        -0.89564         2.42492
H           5.03445        -0.38973         0.48570
H           4.76921        -1.15919         3.43127
H           7.15827        -0.90684         1.44526
H           6.61042        -1.81774         4.41413
H           9.16858        -1.44774         2.68276
H           8.60628        -2.80064         5.64227
H           9.95436        -2.90663         3.65576
H           7.64243        -4.06238         3.87280
H          -1.00559        -1.57523         0.09253
H          -2.47890        -3.13691         1.26254
H           1.71619        -3.76514         3.94041
H           1.88953        -5.09778         2.46184
H           0.34155        -5.11020         4.77743
H          -1.80199        -4.56715         3.98905
H          -1.63177        -5.74337         2.78384

