%chk=OdC1CCqSrCqdOrCdCCdCNdCS1.chk
%NProcShared=20
# opt freq b3lyp/6-31g(2df,p)

Title Card Required 

0  1
O           3.40022        -0.21129        -0.08333
C           4.54350        -0.28703         0.80413
C           3.33869        -0.38287         1.83257
C           4.79325        -0.33889         1.44452
S           5.17498         1.83640         0.56995
C           5.22462        -0.37792         2.92226
O           4.45289        -0.81942         3.77212
C           6.63255        -0.05762         3.07486
C           7.14523        -0.69642         4.08667
C           8.28046         0.16896         3.79606
C           9.08346        -0.45663         4.57950
N           9.77186        -0.87409         3.45838
C           8.73629        -1.69365         2.43756
S           6.75333        -1.29525         1.05650
H           2.73559        -1.32793         1.75913
H           2.74691         0.52220         2.15715
H           5.00383        -1.54094         0.36897
H           4.53333         2.45271         1.54028
H           7.52167         0.21325         2.09672
H           6.48938        -1.07175         4.87002
H           8.99692         0.26607         2.54850
H           8.92286        -1.15426         5.43873
H           9.75023        -1.83144         3.50276

