%chk=Odc1ccc2ccccncccccc1d2.chk
%NProcShared=20
# opt freq b3lyp/6-31g(2df,p)

Title Card Required 

0  1
O           1.82592        -0.42365        -0.01883
C           3.38320        -0.79919         0.00748
C           3.11937         1.04769        -0.08040
C           4.37077         0.79117        -0.11924
C           4.57122        -0.63185        -0.04551
C           5.67627        -1.43048        -0.41611
C           6.95617        -0.86520        -0.24504
C           8.26979        -1.51231        -0.41063
C           9.33056        -0.92895        -0.16110
N          10.45741        -1.24992        -0.14879
C          11.65124        -1.48870        -0.15693
C          11.47090        -2.77719         0.79814
C          11.66059        -2.62506        -0.43595
C           9.56443        -3.00191        -0.03396
C           7.38322        -2.83575         0.30840
C           5.35590        -1.86328         0.43371
H           2.59650         2.05710        -0.07712
H           5.13445         1.45633        -0.09136
H           5.15872        -2.76964        -0.85861
H           6.87811         0.11817        -0.08068
H           8.34847        -3.18889        -0.66314
H           9.28480        -0.02574        -0.11039
H          11.82861        -0.46984        -0.11076
H          12.08954        -4.01415         0.24337
H          13.19536        -1.83460        -0.23787
H          10.95594        -3.53869        -0.66366
H           6.15087        -3.54129         0.14163

