%chk=Odc1[nH][nH]c2cccc3cn-2cc13.chk
%NProcShared=20
# opt freq b3lyp/6-31g(2df,p)

Title Card Required 

0  1
O           4.95871        -2.28125        -0.64093
C           5.36238        -2.57262        -1.85119
N           4.16237        -1.51020        -2.38497
N           4.95970        -0.41006        -2.40097
C           6.37065        -0.78793        -3.26227
C           6.79898        -0.44522        -2.07325
C           7.14832        -0.76339        -3.39452
C           8.58392        -0.92431        -3.10309
C           8.53134        -2.22428        -3.44809
C           8.49679        -2.26561        -5.00363
N           7.25576        -2.39261        -4.26533
C           7.91725        -3.75868        -3.56834
C           7.16245        -3.05568        -2.45821
H           3.19433        -1.16839        -1.84949
H           5.14785        -0.25580        -1.23236
H           7.39419        -0.53708        -1.21807
H           5.90904        -1.83175        -4.09050
H           9.12099        -0.98107        -2.14805
H           8.43333        -1.66239        -5.96426
H           9.26268        -3.87994        -3.99098

