%chk=OdC1CdCCdCC2C1dCCdCCdCC1dCCdCCdCCdCCC12.chk
%NProcShared=20
# opt freq b3lyp/6-31g(2df,p)

Title Card Required 

0  1
O           1.10911        -0.59451        -0.05725
C           2.29078        -0.20466        -0.07769
C           3.30976        -1.27075         0.01278
C           4.45809        -1.54442        -0.60751
C           4.96568        -0.91504        -1.77160
C           4.86102         0.39072        -2.06518
C           4.25738         1.76218        -1.25661
C           2.65294         1.29200        -0.16569
C           1.16433         1.68323         0.22043
C           0.64599         2.55979        -0.83882
C           1.28558         3.73102        -0.62705
C           2.67612         3.65626        -0.94589
C           3.71114         4.09496        -0.22872
C           5.08941         3.67299        -0.18407
C           6.16517         4.12173         0.44713
C           5.86704         5.41798         0.90106
C           6.91131         6.11088         1.29786
C           6.58049         7.38044         1.86662
C           7.56936         8.21565         1.55153
C           6.90414         8.51647         0.16454
C           6.89185         7.24853        -0.85169
C           6.49605         5.20085        -1.52884
C           5.66207         3.34295        -1.42690
H           2.97627        -2.07223         0.66255
H           5.01013        -2.43961        -0.31260
H           5.46956        -1.61387        -2.47138
H           5.07281         0.52266        -3.14726
H           3.73381         1.82827        -2.23319
H          -0.02228         2.13957         0.49302
H           0.58087         1.67502        -1.50531
H           1.15411         4.19854         0.35392
H           2.66046         2.81950        -1.60432
H           3.47066         4.89459         0.41088
H           7.20197         3.90499        -0.01066
H           4.92482         5.94629         0.64382
H           7.85548         5.98590         0.67501
H           5.54462         7.81875         1.61271
H           8.66490         8.14512         1.48405
H           6.57331         9.42245         1.11458
H           7.94912         7.99373        -0.79192
H           7.55393         4.80545        -1.79449
H           6.28176         5.29987        -2.57712
H           6.47584         2.51093        -1.20253

