%chk=OdC1CdCCdCC2dS3CdC3C1dC2.chk
%NProcShared=20
# opt freq b3lyp/6-31g(2df,p)

Title Card Required 

0  1
O           4.24323        -2.82095        -0.71700
C           4.49728        -2.29936        -1.81669
C           3.67211        -0.96250        -1.84839
C           4.46995         0.09078        -1.56966
C           5.50670         0.00145        -2.58487
C           6.80070        -0.25383        -2.27687
C           7.28947        -1.31878        -3.16494
S           6.95309        -1.08320        -4.87141
C           6.70538        -2.60863        -5.58479
C           6.05869        -2.90783        -4.44733
C           5.92039        -2.74397        -2.85986
C           7.23792        -2.67508        -2.53417
H           2.75566        -0.88663        -2.43733
H           4.98106         0.06074        -0.59071
H           5.04054        -0.50976        -3.46784
H           7.14306        -0.31064        -1.25516
H           7.28996        -2.28115        -6.45046
H           8.05614        -2.65316        -1.82272

