%chk=OdC1CdCdC2NdC2CdCCdCNdCCdC1.chk
%NProcShared=20
# opt freq b3lyp/6-31g(2df,p)

Title Card Required 

0  1
O           1.61897         0.75142        -1.65013
C           2.85438         0.97332        -1.59128
C           3.28123         0.33297        -0.00265
C           4.38560         0.03183         0.63296
C           5.50562         0.16754         1.31178
N           6.68203        -0.40351         1.28375
C           6.75074         0.28939         0.24449
C           6.14873         1.13236        -0.81778
C           6.82089         1.68781        -1.81104
C           6.20326         2.60292        -2.69277
C           6.78848         3.22271        -3.70990
N           6.04562         4.13579        -4.37859
C           5.39071         3.36832        -5.18930
C           4.12806         2.29247        -4.50503
C           3.48154         1.66873        -3.24280
H           2.45377         0.18246         0.74451
H           5.09458         1.30834        -0.86681
H           7.87772         1.61389        -1.91463
H           5.18044         2.92291        -2.51274
H           7.76816         2.99592        -4.11507
H           6.07880         3.22572        -6.11892
H           3.48071         2.92700        -5.16896
H           4.04169         0.72190        -3.21078

