%chk=OdC1CdCCdCCdCCdCCdCCdC1.chk
%NProcShared=20
# opt freq b3lyp/6-31g(2df,p)

Title Card Required 

0  1
O           3.07737        -0.51936         0.34798
C           4.64169        -1.31037         0.84027
C           2.95673        -1.32035         0.84648
C           4.40305        -1.42028         0.90867
C           5.08691        -2.61199         1.65035
C           6.28119        -2.85454         1.80132
C           6.71471        -3.76962         2.37082
C           7.65517        -3.30021         2.07868
C           8.87780        -4.49457         2.82200
C          10.59366        -3.59126         2.25981
C          10.49359        -5.48360         3.43753
C          10.86132        -4.34005         2.72583
C           9.05322        -3.04741         1.92133
C           7.08669        -1.97028         1.25095
H           2.36542        -1.99852         1.26855
H           5.46446        -0.53277         0.35633
H           4.42711        -3.11649         1.96433
H           7.85872        -1.49678         0.95630
H           6.54263        -4.43529         2.78510
H           8.76673        -2.05100         1.30122
H           8.69871        -5.39141         3.38015
H          11.61892        -3.33968         2.10323
H          10.94207        -6.36096         3.98356
H          12.59437        -4.72228         2.96371
H          10.10342        -4.44996         2.79423
H           6.62045        -0.67573         0.44530

