%chk=OdC1CCdCC2dCC2dCCdCCdC2CdC12.chk
%NProcShared=20
# opt freq b3lyp/6-31g(2df,p)

Title Card Required 

0  1
O           2.05217        -1.08118         1.38714
C           3.34020        -1.11946         1.44699
C           3.31706         0.06085        -0.24768
C           4.51174         0.52884        -0.91738
C           5.31926         1.12794        -1.77486
C           6.67437         0.94572        -1.51405
C           7.82072         1.25782        -1.96077
C           7.65233         0.34776        -0.65819
C           6.98050        -0.34037         0.32675
C           7.34717        -1.13432         1.46313
C           6.48756        -1.69800         2.26996
C           6.72832        -2.48238         3.39276
C           5.43912        -2.62361         3.59472
C           4.52104        -3.15095         4.35573
C           3.95228        -2.25437         3.05552
H           2.80468         1.18170        -0.41801
H           2.80466        -0.16463        -1.35862
H           4.81499        -0.01687        -0.13628
H           5.05263         1.72511        -2.62961
H           8.20645         1.85128        -2.81020
H           5.94898        -0.48514         0.53395
H           8.32103        -1.34195         1.76032
H           5.45191        -1.52918         2.02830
H           7.70352        -2.79482         3.83982
H           5.49828        -3.70770         5.14592

