%chk=Odc1ccc2ccc1NCCdCdCSNdNN2.chk
%NProcShared=20
# opt freq b3lyp/6-31g(2df,p)

Title Card Required 

0  1
O           0.49867        -0.46161         1.64022
C           1.25446        -0.53622         2.66117
C           2.72109        -0.31719         1.49273
C           4.06057        -0.56823         1.15737
C           4.66395        -1.26521         2.29878
C           4.44079        -0.56452         3.45272
C           2.77334        -0.92703         4.48496
C           1.04549        -0.96906         4.55452
N          -0.71488        -1.38169         5.60286
C          -1.97096        -2.12391         6.89545
C          -2.28077        -3.56687         6.26948
C          -1.06352        -3.86175         5.91400
C           0.18913        -3.59301         5.60721
S           0.63293        -3.45680         3.75477
N           2.35169        -3.14305         3.90976
N           2.90268        -2.71441         2.87483
N           4.26599        -2.47833         2.84360
H           2.55603        -1.28944         1.83264
H           4.81400        -0.20303         0.34091
H           5.77314        -0.83880         2.98586
H           3.92925        -1.36337         4.99228
H          -1.89536        -1.66606         5.29083
H          -2.42809        -2.73989         8.08585
H          -2.98681        -1.45046         7.17693
H          -3.14553        -3.84470         5.62072
H           0.87081        -3.36781         6.45453
H           4.87234        -2.70416         3.65576

