%chk=OdC1SC2dC1CdCNCdCdCdC2.chk
%NProcShared=20
# opt freq b3lyp/6-31g(2df,p)

Title Card Required 

0  1
O           3.31411         0.33212         1.07908
C           4.05789         1.34190         1.30361
S           4.16365         1.88459        -0.41169
C           5.54837         0.84149         0.22287
C           5.82444         1.91658         1.01582
C           7.42894         2.81300         1.61710
C           8.50136         3.65375         1.04518
N           8.99215         3.25810        -0.24069
C           7.85705         3.24814        -1.05320
C           7.50917         2.04172        -1.24204
C           7.26689         0.81970        -1.03733
C           6.42953         0.01507        -0.55362
H           8.41489         2.17430         1.74168
H           8.84572         4.67412         0.65373
H           9.44834         2.33268        -0.16139
H           7.20105         4.09090        -0.62859
H           6.48791        -1.01154        -0.13885

