%chk=OdC1CdCCdCNdCCCCdNNO1.chk
%NProcShared=20
# opt freq b3lyp/6-31g(2df,p)

Title Card Required 

0  1
O           3.92714        -0.58882        -0.79369
C           5.61193        -1.10524        -1.28711
C           3.68917        -1.19208        -1.45032
C           5.30153        -1.08964        -1.26702
C           4.98320        -2.16714        -2.59173
C           6.22380        -2.16841        -2.62673
N           6.80278        -2.95877        -3.55757
C           8.01506        -2.81177        -3.30819
C           9.11057        -3.55618        -4.23784
C          11.14129        -2.84508        -3.37573
C          10.41088        -4.10453        -4.94483
N          11.14152        -3.32187        -4.02339
N           9.61389        -2.28776        -3.07081
O           7.58768        -1.69873        -2.04967
H           2.58705        -1.56076        -1.88420
H           5.12733        -0.09140        -0.10316
H           4.22306        -2.53389        -3.04570
H           6.89208        -1.09320        -1.35374
H           8.86925        -1.83221        -2.09849
H           8.92997        -3.01806        -5.22248
H           8.93140        -4.59741        -3.90638
H          11.19767        -3.59456        -2.45346
H          11.20943        -1.76535        -3.98318
H          11.02762        -4.63137        -5.55537
H          10.24171        -3.33216        -3.91338

