%chk=OdC1CdCC2dCCdCCdCCdCNdCCdNC2dC1.chk
%NProcShared=20
# opt freq b3lyp/6-31g(2df,p)

Title Card Required 

0  1
O           1.58930        -0.48309         0.10914
C           3.06910        -0.83890         0.30652
C           3.17819         0.84537         0.08858
C           4.48270         0.52052         0.46761
C           5.56913        -1.09333         1.01642
C           6.26537        -0.06877         1.46311
C           7.09619        -0.92880         1.92457
C           8.18462        -1.14562         2.47242
C           8.79784        -2.24952         2.89455
C           9.95204        -2.35563         3.41469
C          10.32924        -3.41625         4.12970
C          11.53260        -3.60436         4.60416
N          11.63297        -4.74635         5.23323
C          11.93514        -4.92638         3.90787
C           9.95175        -4.76862         2.72628
N           8.23495        -4.11663         2.05003
C           6.39813        -2.99297         1.35740
C           4.68501        -2.29394         0.75411
H           2.45524         1.89361        -0.23472
H           4.73851         1.90099         0.39411
H           6.53149         0.92749         1.64990
H           6.89620        -1.83101         2.23215
H           8.55920        -0.27968         2.71756
H           8.27974        -3.03574         3.35395
H          10.43660        -1.54416         3.70447
H           9.25040        -4.18868         4.00847
H          12.29580        -2.89526         4.72272
H          13.24320        -4.59522         4.96277
H          10.94878        -5.85299         3.60043
H           3.27625        -2.31089         0.13876

