%chk=OdC1CdC2CdCCdC2CdCCdNCdN1.chk
%NProcShared=20
# opt freq b3lyp/6-31g(2df,p)

Title Card Required 

0  1
O           1.29129        -1.22755        -0.13561
C           2.51151        -1.35529        -0.40330
C           3.15517         0.33899        -0.31893
C           4.39100         0.91660        -0.23867
C           5.04818         2.26217        -0.18969
C           6.38983         2.03543        -0.18890
C           6.62557         0.61024        -0.16399
C           5.46799        -0.00406        -0.13186
C           5.24688        -1.31175         0.37502
C           6.04734        -2.29641         0.64323
C           5.25489        -3.49243         0.87803
N           5.16053        -4.00409        -0.30309
C           3.82218        -3.90059        -0.56105
N           2.98443        -2.85259        -0.54363
H           2.35340         1.10884        -0.21805
H           4.65072         3.27561        -0.20639
H           7.22544         2.72598        -0.18455
H           7.55163         0.07275        -0.03147
H           4.22637        -1.43028         0.66742
H           7.00697        -2.33916         0.16065
H           4.31355        -3.49888         1.51162
H           3.56420        -5.01592        -0.52911

