%chk=OdC1CdCCqSCC2dCCdC2rdC1.chk
%NProcShared=20
# opt freq b3lyp/6-31g(2df,p)

Title Card Required 

0  1
O          -1.85581         0.03551         0.01780
C          -0.63675         0.03715         0.03018
C           0.21532        -1.15465         0.03136
C           1.46185        -0.67377        -0.02930
C           1.47000         0.77142        -0.02455
S           2.94844         1.65763        -0.06049
C           2.43639         3.37418        -0.01590
C           3.53778         4.41261        -0.03908
C           3.47870         5.75745        -0.01707
C           4.90003         5.83364        -0.06621
C           4.96890         4.48449        -0.08843
C           0.21731         1.23457         0.02257
H          -0.13960        -2.16909         0.05807
H           2.35033        -1.28730        -0.07006
H           1.82395         3.59344         0.86807
H           1.76323         3.61963        -0.84719
H           2.66657         6.47465         0.02205
H           5.56846         6.68696        -0.07737
H           5.75289         3.73425        -0.12718
H          -0.17387         2.23341         0.04800

