%chk=Odc1cnc2cccccccccnc1-2.chk
%NProcShared=20
# opt freq b3lyp/6-31g(2df,p)

Title Card Required 

0  1
O           1.81762        -1.15271         0.12274
C           3.01284        -1.72848         0.25546
C           3.27957         0.22011         0.09747
N           4.47842         0.05123         0.37082
C           4.62496        -1.60474         0.57296
C           5.63770        -1.56565         1.34606
C           5.71355        -2.83160         1.71103
C           6.60166        -3.57430         2.19745
C           6.37887        -4.88718         2.57708
C           7.40929        -5.54274         2.98962
C           6.78419        -6.66853         3.67004
C           7.78647        -7.51346         3.77270
C           6.92676        -8.11544         2.44948
C           6.13291        -6.91100         1.32240
N           5.08818        -5.16551         0.76146
C           4.19407        -3.61318         0.34884
H           2.77659         1.62061        -0.12581
H           6.27091        -0.79362         1.65052
H           5.03815        -3.60527         1.80197
H           7.38757        -3.00279         2.46393
H           5.45612        -5.66272         2.51667
H           8.34481        -5.12999         3.23270
H           5.64549        -7.31786         3.17888
H           8.90589        -7.45300         3.88452
H           7.10260        -9.52025         3.00073
H           7.28636        -7.76955         1.85272

