%chk=OdC1NdCCdC1SCdNCC1dNN1.chk
%NProcShared=20
# opt freq b3lyp/6-31g(2df,p)

Title Card Required 

0  1
O           0.92347         0.04995         0.01935
C           2.14147         0.05875         0.01803
N           2.94584         1.17493         0.01516
C           4.15489         0.73411         0.00898
C           4.28928        -0.71293         0.00761
C           3.02962        -1.14554         0.01715
S           2.39187        -2.72595         0.02562
C           3.75672        -3.82121         0.02471
N           3.50427        -5.07844         0.03267
C           4.66682        -5.97249         0.03006
C           4.13104        -7.30765         0.04003
N           4.26099        -8.58837         0.04496
N           3.04448        -8.00924         0.05101
H           5.05621         1.36463         0.00600
H           5.22022        -1.24331         0.00200
H           4.78802        -3.43857         0.01714
H           5.28937        -5.83751         0.92065
H           5.27820        -5.84638        -0.86951
H           2.04751        -8.04779         0.05622

