%chk=OdC1CdCCdCCdCCdC[C][N]C1.chk
%NProcShared=20
# opt freq b3lyp/6-31g(2df,p)

Title Card Required 

0  2
O           2.99548        -0.07737        -0.50384
C           3.79316        -0.72056         0.19091
C           3.05648        -0.90610         1.44286
C           4.12015        -0.62414         1.99140
C           4.81686        -1.39071         2.92339
C           6.08142        -1.08825         2.96449
C           6.84919        -1.70054         3.95498
C           8.09757        -1.27974         4.06003
C           9.11807        -2.14042         4.54484
C           9.82550        -2.35604         3.37864
C           8.79531        -2.03876         1.91535
N           7.40391        -1.60828         0.63849
C           5.76743        -0.75175         0.17075
H           2.11597        -1.26578         1.89646
H           4.69906         0.23165         1.61727
H           4.25841        -2.04499         3.52420
H           6.56668        -0.38541         2.25489
H           6.42478        -2.51017         4.50697
H           8.46875        -0.57330         3.26246
H           8.87364        -2.83506         5.39418
H          10.97016        -2.06030         3.58306
H           5.68680        -0.95123        -0.89965
H           5.86862         0.37761         0.11985

