%chk=OdCc1cccc2cccc-2cc2cqo1rdCCd2.chk
%NProcShared=20
# opt freq b3lyp/6-31g(2df,p)

Title Card Required 

0  1
O           1.79757         0.79295         0.25970
C           2.95377         0.76935        -0.18648
C           4.14737         1.51552         0.42979
C           4.59819         0.64382         1.33381
C           5.19590         1.21943         2.49158
C           6.47893         1.07362         2.73331
C           7.14021         2.05518         3.51041
C           6.95458         2.20102         4.83486
C           8.05521         2.96994         5.36369
C           8.88175         3.35198         4.36139
C           8.21501         2.92340         3.14145
C           8.46752         3.23583         1.84853
C           7.63768         2.92818         0.60052
C           6.30164         2.57589        -0.12473
O           4.97624         2.62995        -0.07156
C           7.22148         2.47798        -1.14223
C           8.01473         1.84239        -0.12061
H           3.21483        -0.09049        -0.83091
H           5.12220        -0.19299         0.86329
H           4.60531         1.98362         3.00280
H           7.12093         0.39671         2.17165
H           6.20066         1.66466         5.37502
H           8.18224         3.10931         6.42313
H           9.80798         3.89146         4.48302
H           9.43692         3.72408         1.66451
H           7.49744         2.39857        -2.17575
H           7.70478         0.81906         0.21436

