%chk=OdCC1dCCdCCdCCdCCdCCdCCdCS1.chk
%NProcShared=20
# opt freq b3lyp/6-31g(2df,p)

Title Card Required 

0  1
O           2.45248         0.30176         0.92546
C           4.06077         0.59555         1.71375
C           5.98448         1.23157         3.42033
C           4.98997         0.60785         1.74675
C           5.36376         1.01900         2.84996
C           7.10600         0.82998         2.34279
C           7.51705         1.34533         3.72556
C           9.01082         1.23095         3.41866
C          10.20284         1.80160         4.94981
C          11.38674         1.67735         4.61642
C          10.56424         1.97969         5.42765
C          12.47633         2.06657         5.66077
C          12.54075         2.82957         7.70805
C          14.32179         2.46243         6.72295
C          13.07011         2.75321         7.50315
C          11.21189         2.43015         6.63633
S           8.42375         1.86073         5.10848
H           3.23067        -0.00437         0.10407
H           4.97010         0.12890         0.46165
H           4.34163         1.29472         3.58977
H           7.04606         0.50766         1.47794
H           6.97286         1.91861         5.26376
H           9.31949         0.92200         2.58968
H           9.22108         2.32042         6.34191
H          11.27854         1.38150         3.82261
H          10.15012         2.63227         7.17866
H          13.50731         1.90644         5.23111
H          12.80949         3.25320         8.84472
H          15.47034         2.44495         6.67605
H          14.41436         3.20181         8.70684
H          13.06989         2.47965         6.76914

