%chk=OdCC1dCCdCdCdCCdCdNOCdC1.chk
%NProcShared=20
# opt freq b3lyp/6-31g(2df,p)

Title Card Required 

0  1
O           2.27081         0.02057         1.33829
C           3.49643         0.20422         1.21767
C           5.18810         0.43367         2.25906
C           5.02187        -0.48888         1.26040
C           5.61480        -1.66867         1.70490
C           6.88757        -1.43874         1.39087
C           7.98392        -0.89123         1.36475
C           9.22860        -0.46407         1.62553
C           9.81245         0.93037         2.35970
C          11.06573         0.85969         2.69988
N          11.42499         0.11827         3.51708
O          10.06947        -0.52449         4.28241
C           8.27188        -0.46064         4.06681
C           6.69243        -0.03199         3.35583
H           3.52627         0.30418        -0.02068
H           5.18340        -0.09264         0.22295
H           5.12142        -1.81280         2.78092
H           9.81198        -1.38087         1.90311
H           9.36490         1.30344         3.34810
H           9.31303        -1.21546         3.67346
H           5.93346        -0.23303         4.10860

