%chk=OdCCOCdC1[SH]dCCdCCCCC1dO.chk
%NProcShared=20
# opt freq b3lyp/6-31g(2df,p)

Title Card Required 

0  1
O           0.99796         0.06189        -0.04429
C           2.23674         0.06200        -0.04491
C           3.20929         1.15557        -0.74842
O           4.92192         0.85239        -0.57425
C           6.37947         1.59460        -1.08616
C           8.10547         1.19851        -1.24625
S           7.61969         3.08802        -2.17850
C           9.22977         3.12713        -1.92470
C          10.32839         3.76373        -2.37112
C          11.35115         3.47075        -1.59630
C          12.75386         3.76256        -2.23451
C          13.78033         2.37652        -1.55140
C          12.23149         1.39915        -1.70007
C          10.07283         1.01685        -1.23274
O           9.96445         0.25337        -0.25593
H           2.75245        -0.75048         0.47562
H           2.83671         2.10091        -0.27832
H           2.83559         1.12732        -1.79852
H           5.55398         2.39341        -1.54547
H           7.48465         3.96187        -1.17845
H           9.48105         2.63379        -1.04295
H          10.26849         4.52430        -3.05642
H          11.30845         2.70408        -0.65061
H          12.95270         4.72923        -1.80650
H          12.75645         3.68165        -3.35456
H          14.50887         1.64501        -2.07447
H          14.31709         2.63829        -0.49396
H          12.79034         1.78844        -2.78540
H          12.75560         2.37304        -1.01068

