%chk=OdCC1dCCdCCdCCdC2CqSrdCCdC12.chk
%NProcShared=20
# opt freq b3lyp/6-31g(2df,p)

Title Card Required 

0  1
O           2.81015        -0.45010         0.62014
C           4.40899        -0.54893         0.80701
C           6.63026        -0.72492         1.31127
C           5.06537        -0.88729         1.24094
C           5.41540        -1.68452         2.31394
C           6.74624        -1.74373         2.60422
C           6.76753        -2.57607         3.56687
C           7.94717        -2.56357         3.29474
C           8.94620        -3.02971         4.16733
C          10.00138        -2.52135         3.60130
C          11.02778        -3.54868         4.87600
S          10.87487        -4.61577         6.38476
C          12.01158        -3.00001         4.18694
C          10.68949        -1.93856         2.86917
C           8.88139        -1.41782         2.26354
H           3.47667         0.20497        -0.29711
H           5.44450        -0.04007         0.02618
H           4.56677        -2.05890         2.83780
H           7.89327        -0.90892         1.36815
H           6.42558        -3.08107         4.28003
H           7.77579        -2.06993         1.73384
H           8.79207        -3.62559         5.01624
H           9.52309        -4.67462         6.45749
H          13.27398        -3.59555         4.99981
H          12.26731        -2.10979         2.94640

