%chk=OdCCCc1cc2cccccc-2c1.chk
%NProcShared=20
# opt freq b3lyp/6-31g(2df,p)

Title Card Required 

0  1
O           1.05986         0.05626        -0.08768
C           2.28861         0.04062        -0.05379
C           3.05743        -0.64933         1.03814
C           4.56510        -0.51872         0.83873
C           5.31545        -1.17075         1.95325
C           5.23797        -2.59851         2.23246
C           5.98469        -2.90769         3.31419
C           6.10063        -4.22875         3.86781
C           6.84678        -4.58446         4.92128
C           7.69303        -3.76122         5.75386
C           7.92536        -2.44264         5.70312
C           7.40542        -1.45270         4.78774
C           6.58026        -1.64803         3.75203
C           6.12639        -0.59323         2.85897
H           2.87506         0.53863        -0.84291
H           2.75912        -1.70341         1.03254
H           2.76211        -0.20212         1.99361
H           4.83571         0.54369         0.77575
H           4.86205        -0.96215        -0.12052
H           4.64546        -3.28990         1.65163
H           5.52044        -5.00549         3.37365
H           6.83200        -5.63535         5.20906
H           8.20610        -4.32069         6.53690
H           8.60952        -2.03256         6.44640
H           7.75629        -0.44138         4.98609
H           6.39052         0.44890         2.93421

