%chk=OdCCtCC1dCNdCCdCC2dCCdC2CCC1.chk
%NProcShared=20
# opt freq b3lyp/6-31g(2df,p)

Title Card Required 

0  1
O           1.39761        -0.20986         0.63754
C           2.62291        -0.33417         0.78193
C           3.29607        -1.05773         2.07967
C           3.85689        -1.57567         3.08629
C           4.95074        -1.91038         4.33325
C           5.93249        -1.02154         4.15254
N           6.80750        -1.24348         5.05772
C           7.89120        -0.57170         5.23348
C           8.50456        -1.17722         6.35917
C           9.63426        -0.81934         6.90574
C          10.24529        -1.47059         8.09415
C          11.48268        -0.88667         8.50038
C          12.19186        -1.46534         9.65611
C           9.67951        -2.64166         8.88083
C           8.35373        -3.26242         8.47171
C           6.66829        -3.41859         7.36370
C           5.39842        -3.00376         5.85070
H           3.23460         0.09993        -0.06283
H           6.00147        -0.25504         3.38427
H           8.26933         0.26227         4.67938
H           7.93999        -1.98049         6.73830
H          10.13229         0.01429         6.43492
H          11.93328        -0.04031         7.95483
H          13.07828        -1.60359        10.23943
H           8.80622        -3.67809         7.56206
H           7.84144        -2.34041         8.77915
H           5.94024        -3.40448         8.20210
H           6.72293        -4.51864         7.20849
H           4.43835        -2.89516         6.39571
H           5.30084        -3.99234         5.35997

