%chk=OdCC1dCCqOrdNNdNCCqOrCdC1.chk
%NProcShared=20
# opt freq b3lyp/6-31g(2df,p)

Title Card Required 

0  1
O           1.81930         0.58994        -0.75712
C           3.09473         0.69875        -0.86335
C           4.40931         1.83433        -1.77731
C           4.62076         0.81730        -1.03715
C           5.23987         1.23928        -2.24737
O           4.31552         2.28049        -3.59273
N           6.58623         1.14645        -1.52974
N           7.55021         1.79749        -2.05433
N           8.72331         1.90258        -2.19090
C           8.50017         2.83154        -3.23164
C           9.60851         3.39109        -3.66236
O          10.52016         2.05690        -3.88598
C           7.44340         3.43590        -3.61484
C           5.96576         2.96156        -2.80037
H           3.29392        -0.19905         0.07168
H           5.20134         0.18132        -0.36794
H           3.44280         2.87050        -3.30318
H           8.70103         4.29083        -2.91593
H           8.61551         2.51572        -4.62864
H          10.32529         3.65662        -2.71922
H          10.70823         1.78825        -4.80413
H           8.24748         4.21608        -4.53139
H           4.65890         3.05791        -2.12722

