%chk=OdCqOrc1ccc2cccccc1-2.chk
%NProcShared=20
# opt freq b3lyp/6-31g(2df,p)

Title Card Required 

0  1
O           1.11889        -0.00606         0.00879
C           2.34212        -0.01677         0.02539
O           3.07051         0.57277        -0.94885
C           3.15331        -0.67486         1.07592
C           4.38238        -0.11095         1.62828
C           4.87961        -0.94284         2.55889
C           3.95897        -2.06411         2.65646
C           4.13264        -3.09205         3.49735
C           3.27224        -4.23462         3.70429
C           2.10962        -4.53583         3.11361
C           1.38891        -3.81720         2.09241
C           1.69997        -2.66881         1.47773
C           2.85682        -1.84057         1.71033
H           4.03343         0.43410        -0.90058
H           4.78739         0.85559         1.37057
H           5.75952        -0.79726         3.16552
H           5.01902        -3.10426         4.13130
H           3.63536        -4.93307         4.45992
H           1.61468        -5.45449         3.43183
H           0.45731        -4.29720         1.79262
H           0.99261        -2.31514         0.73007

