%chk=OdNC1dNNCdCdCCdCSCdCCdC1.chk
%NProcShared=20
# opt freq b3lyp/6-31g(2df,p)

Title Card Required 

0  1
O           2.71601        -0.09112        -1.95474
N           2.93606         0.02567        -3.27232
C           4.51456        -0.28632        -4.01269
N           4.99591        -0.19801        -2.80175
N           5.44222         1.04426        -2.51581
C           6.77869         0.90984        -2.47080
C           7.39490         1.08329        -3.58344
C           7.94242         1.38356        -4.70726
C           8.44892         0.35829        -5.54535
C           9.24858         0.64050        -6.57054
S          10.01089        -0.63432        -7.46148
C           9.24061         0.09632        -8.82104
C           7.90234        -0.35564        -8.57607
C           6.54444        -0.08510        -7.18911
C           5.52700        -0.06003        -5.80799
H           5.11487         1.71330        -3.22778
H           7.13155         0.40499        -1.58322
H           8.23795         2.40424        -4.87213
H           8.02641        -0.65424        -5.46262
H           9.28518         1.65115        -6.99471
H           9.92215         0.95648        -9.25637
H           8.28629        -1.15158        -9.44645
H           6.69624         0.70628        -8.07921
H           4.73968         0.75464        -5.73774

