%chk=ONC1CdCCdCCdCCdCCdNNN1.chk
%NProcShared=20
# opt freq b3lyp/6-31g(2df,p)

Title Card Required 

0  1
O           1.74436        -0.07842         0.59375
N           3.55688        -0.09700         1.18115
C           5.01668         0.12779         2.63229
C           5.10366         0.68346         1.20973
C           5.44056         1.67767         2.01147
C           6.82756         1.57746         1.88515
C           7.43232         2.21698         2.88102
C           8.81581         1.91928         2.97898
C           9.39454         2.69259         3.90941
C          10.85390         2.74488         3.90259
C          11.32918         3.29394         5.08546
C          12.07674         2.14221         5.28135
N          10.64929         1.30117         5.50590
N           8.78420         0.72554         4.91488
N           6.97112         0.20479         3.74140
H           1.16845        -0.37142        -0.43333
H           3.37775         0.42166         0.05757
H           3.82906         0.93754         2.51724
H           5.21287         0.04871         0.28724
H           4.73060         1.93024         3.13330
H           7.22112         0.63119         1.37449
H           6.84527         2.37213         3.90720
H           9.33920         1.10857         2.42663
H           8.86107         2.72099         5.00249
H          11.40332         1.73844         3.48303
H          10.91703         3.24192         6.22695
H          13.38004         2.05584         4.71341
H          10.17748         0.52049         4.90840
H           6.11728         0.59774         4.32844

