%chk=OSc1ccccc2ccnnccnc1-2.chk
%NProcShared=20
# opt freq b3lyp/6-31g(2df,p)

Title Card Required 

0  1
O           2.52725         0.37818        -0.73409
S           4.56733         1.13609        -1.95560
C           6.80187         2.01921        -3.37895
C           5.60826         1.16266        -1.99844
C           6.07341         1.91868        -3.21691
C           8.16974         1.87301        -3.14331
C           7.15086         2.79523        -4.62966
C           8.14168         3.01343        -4.98133
C           8.64167         3.52773        -5.81022
C           9.78260         3.63652        -5.98557
N          10.26133         4.33280        -7.10776
N          11.51209         4.55093        -7.45932
C          12.46037         4.99157        -8.16951
C          12.39628         3.96579        -6.51625
N          10.98469         3.22657        -5.32485
C           8.86385         2.57360        -4.27246
H           1.37667        -0.22065         0.23106
H           5.87352         0.52507        -0.97083
H           4.70545         2.17802        -3.63490
H           7.83492         1.31229        -2.23959
H           6.26102         3.06443        -5.06353
H           8.26416         3.93974        -6.47427
H          10.43138         2.68863        -4.45786
H          11.99194         5.51516        -9.01339
H          13.95411         4.47121        -7.33084

