%chk=SC1dc2ccccccccc2dCdCNdC2CdC2CdN1.chk
%NProcShared=20
# opt freq b3lyp/6-31g(2df,p)

Title Card Required 

0  1
S           1.55188         0.17037         0.15187
C           2.71227        -0.98558        -1.23127
C           4.27179        -1.92855        -1.36470
C           4.96610        -0.88026        -0.61457
C           6.03736        -1.38285        -0.96045
C           7.31054        -1.46008        -1.01274
C           7.87886        -2.37218        -1.63034
C           9.16505        -2.55100        -1.83371
C           8.55875        -3.41735        -2.67321
C           9.34937        -4.34839        -2.57707
C           7.53747        -4.42881        -2.45458
C           5.35820        -3.48613        -2.11238
C           3.61482        -3.34434        -1.78057
C           1.82203        -2.93314        -1.33898
N           0.39298        -2.22262        -0.22817
C          -1.00865        -1.35653        -0.22013
C          -2.42877        -0.44492        -0.04976
C          -2.14159        -1.18807        -1.17066
C          -0.49927        -1.34994        -2.07685
N           0.96497        -0.74927        -1.77473
H           0.64436        -0.81410        -0.37099
H           5.32438        -0.01233        -0.12227
H           6.07691        -2.17639        -1.48973
H           7.89327        -0.81931        -0.61760
H           7.07160        -2.89451        -2.09182
H          10.01732        -2.08963        -1.38220
H           8.52460        -4.74577        -3.61004
H          10.80569        -3.74712        -2.44367
H           9.11451        -4.86139        -2.51434
H           0.71661        -3.09785        -1.94480
H          -3.00918         0.31056         0.77380
H          -1.02970        -2.58045        -2.33941

