%chk=SdC1CdCC2dCCdCSCdCdCSC2dC1.chk
%NProcShared=20
# opt freq b3lyp/6-31g(2df,p)

Title Card Required 

0  1
S           1.48668        -0.69486         0.09325
C           3.19944        -0.64091         0.22547
C           3.73210         0.72901         0.12167
C           5.01193         0.77298         0.46427
C           5.89592        -0.37460         0.92292
C           6.98139         0.14387         1.50620
C           7.69564        -0.77996         2.21669
C           8.85875        -0.56519         2.86454
S           9.09851        -1.48146         4.30454
C          10.50806        -2.22552         3.66303
C           9.99705        -3.10394         2.77401
C           9.06311        -3.92399         2.33655
S           7.10370        -3.57590         1.45697
C           5.68261        -1.97106         0.91093
C           4.30821        -1.99813         0.47804
H           3.12696         1.63768        -0.12308
H           5.37696         1.80659         0.47922
H           7.11393         1.20786         1.65073
H           7.13129        -1.61476         2.53552
H           9.37338         0.33055         2.67592
H          11.45076        -1.70104         3.84018
H           9.39710        -4.91328         2.89119
H           3.62042        -2.79637         0.20158

