%chk=Sdc1ccccc2ccnccccc-2c1.chk
%NProcShared=20
# opt freq b3lyp/6-31g(2df,p)

Title Card Required 

0  1
S           2.33110         0.25833         0.12084
C           4.68886         0.84247         0.26092
C           3.38910         1.56514         0.43423
C           4.65937         1.85157         0.50292
C           5.44819         2.96644         0.77028
C           6.87870         3.28066         0.84563
C           7.68004         4.15791         1.05601
C           8.97808         3.94121         1.00404
C           8.74953         5.34990         1.34186
N           9.72912         4.94817         1.24552
C          10.80831         6.34537         1.58059
C          11.78157         5.10317         1.28269
C          12.22625         6.31355         1.57296
C          11.13172         4.57441         1.15589
C           8.82460         3.20758         0.82811
C           7.06079         1.76915         0.48315
H           2.71725         2.28853         0.60771
H           5.83548         1.31873         0.37514
H           4.79851         3.64011         0.93183
H           8.20141         2.06816         0.55486
H          10.08812         2.71374         0.70968
H           9.03652         6.22057         1.55066
H          11.07593         7.43304         1.84142
H          13.51089         5.11555         1.28566
H          13.02895         7.90900         1.95557
H          12.64422         5.88813         1.47094
H           5.80741         0.30087         0.13104

