%chk=SNn1o[nH]ccc2c1dCCdCCdCCdCd2.chk
%NProcShared=20
# opt freq b3lyp/6-31g(2df,p)

Title Card Required 

0  1
S           3.31494         0.67870         1.18508
N           5.16976         1.20239         2.61490
N           7.01583         2.23750         3.61455
O           6.26186         1.60960         2.02403
N           5.76862         2.56892         1.08907
C           7.13614         2.41451         1.03724
C           7.84601         3.23658         1.87294
C           9.14599         3.18194         2.92887
C           8.66036         3.17707         4.61833
C          10.18999         3.99028         5.83271
C          11.76618         5.27105         6.53456
C          12.94821         4.98248         5.88108
C          12.03182         5.56268         4.91857
C          11.38327         4.67290         4.18308
C          10.38848         5.09005         3.30085
C           9.77213         4.24270         2.61220
H           1.85429        -0.16890         0.12966
H           4.76989         0.70129         1.24935
H           4.94549         2.80648         1.75124
H           7.37113         1.30028         0.73250
H           7.05682         3.87926         2.41970
H          11.35581         4.21994         6.95035
H          12.82036         6.56152         6.74312
H          13.06151         3.96179         6.36695
H          11.78245         6.63183         4.89951
H          11.42115         3.57043         4.56141
H          10.21537         6.07776         3.07047

