%chk=SSCC1dNCdCC2dCCdCCdNC2dCC1.chk
%NProcShared=20
# opt freq b3lyp/6-31g(2df,p)

Title Card Required 

0  1
S           1.34379        -0.10899        -0.12460
S           3.48598         0.03253        -0.05686
C           4.01707        -0.28590        -1.81203
C           5.58757        -0.51536        -2.27204
N           5.79105        -1.70591        -2.75656
C           7.13445        -1.98703        -2.79986
C           7.92026        -1.98130        -3.83903
C           9.28203        -1.50514        -3.51195
C          10.07361        -2.12409        -2.63269
C          11.47865        -1.90829        -2.39465
C          12.30592        -1.29727        -3.23064
C          11.79620        -0.45414        -4.37715
N          10.62133         0.13348        -4.56902
C           9.51768        -0.07512        -3.67547
C           8.33355         0.65779        -3.39574
C           6.99627         0.52262        -2.17566
H           0.85896         0.24773         1.10117
H           3.46008         0.38383        -2.46814
H           3.55075        -1.28375        -1.95633
H           7.62689        -1.84049        -1.82965
H           7.52987        -1.83788        -4.86060
H           9.61084        -2.81030        -1.93901
H          11.87459        -2.44271        -1.53422
H          13.38879        -1.40124        -3.08205
H          12.62878        -0.30957        -5.12288
H           7.93579         1.09354        -4.31801
H           6.72321         1.50161        -1.75050
H           7.50559         0.08369        -1.29940

