%chk=C1dCCCNCCdCC2dCCqdC1rNC2.chk
%NProcShared=20
# opt freq b3lyp/6-31g(2df,p)

Title Card Required 

0  1
C           3.00611         0.17786        -1.26073
C           2.98441        -0.51462        -0.01345
C           3.24915        -0.83500        -1.50592
C           4.97567        -0.52000        -0.84246
N           5.68611        -1.15415        -2.06947
C           7.02597        -0.65713        -1.73537
C           7.81492        -1.48225        -2.62807
C           9.08588        -1.06566        -2.69991
C           9.43886        -0.88823        -3.94003
C           8.10901        -0.33674        -4.82611
C           6.52558        -0.06729        -3.64032
C           4.80845         0.42909        -2.65428
N           8.26534        -1.13303        -4.53836
C          10.17527        -1.96546        -4.50278
H           1.35802        -0.07822        -1.05664
H           2.97047         0.27830         0.80220
H           2.81742         0.20337        -2.69244
H           2.86039        -1.79687        -1.64638
H           4.99724        -1.12761        -0.01132
H           5.04060         0.70386        -0.64109
H           5.28456        -0.61552        -3.32216
H           7.18126        -1.30194        -0.99745
H           7.15582         0.46189        -1.67765
H           7.00552        -1.87608        -3.77598
H           9.68515        -0.52866        -2.14863
H           8.50021        -0.18287        -5.99189
H           3.67961         0.80245        -1.47352
H           9.60627        -1.20200        -5.36332
H          11.48762        -1.87015        -3.78982
H          10.59449        -3.18832        -4.44531

