%chk=C1dNCN2COCCCCCCqC2rNN1.chk
%NProcShared=20
# opt freq b3lyp/6-31g(2df,p)

Title Card Required 

0  1
C          -2.79654        -0.89871        -0.51564
N          -3.18235         0.07556         0.20882
C          -2.56787         1.30745        -0.29809
N          -1.26949         1.51315         0.33749
C          -0.42508         2.54150        -0.25062
O           0.89135         2.54005         0.30797
C           1.76557         1.81375        -0.53974
C           2.90029         1.19399         0.25494
C           3.23670        -0.17492        -0.32176
C           2.46598        -1.22736         0.46853
C           1.10353        -1.48605        -0.16225
C          -0.19660        -1.19970         0.67600
C          -0.66820         0.38912         1.11589
N          -1.05461        -2.20666        -0.04742
N          -2.43763        -2.09145         0.05453
H          -2.38061        -0.80103        -1.54439
H          -3.28069         2.11646        -0.08911
H          -2.45136         1.29767        -1.39014
H          -0.79791         3.56698        -0.09912
H          -0.37279         2.42731        -1.34252
H           2.16494         2.50281        -1.28587
H           1.19896         1.04188        -1.06759
H           2.65414         1.11522         1.32192
H           3.78110         1.83783         0.19561
H           4.31300        -0.36422        -0.26035
H           2.99528        -0.23148        -1.39453
H           2.35586        -0.97404         1.52638
H           3.06806        -2.14983         0.45467
H           1.16709        -2.57396        -0.36630
H           1.00737        -1.07193        -1.17353
H          -0.02044        -1.64200         1.66761
H           0.13444         0.81828         1.73790
H          -1.42406         0.22848         1.90748
H          -0.72703        -3.16188         0.12678
H          -2.80281        -2.20304         0.99837

