%chk=CC1CCCC2CCCCC2CCC2CC1CC2dO.chk
%NProcShared=20
# opt freq b3lyp/6-31g(2df,p)

Title Card Required 

0  1
C           0.79225         0.10106        -0.03465
C           2.28920         0.13314        -0.04426
C           2.79509        -1.12945        -0.78611
C           3.92229        -1.67811         0.02662
C           4.97610        -2.29957        -0.85713
C           6.34136        -1.70642        -0.33738
C           7.31931        -2.84780        -0.45403
C           8.12134        -2.29754         0.67243
C           9.22375        -1.65421        -0.06986
C           8.95381        -0.29452         0.43033
C           7.36632        -0.05687        -0.31517
C           6.93709         1.31907         0.47260
C           6.46788         2.66892        -0.25194
C           4.80459         3.33056         0.10719
C           2.99084         2.87840        -0.20586
C           2.91530         1.35287        -0.73464
C           4.31499         1.29109        -0.40578
C           4.66957         2.59400        -1.07211
O           4.58950         3.02870        -2.25088
H           0.45889        -0.81919         0.46370
H           0.40758         0.10198        -1.05491
H           0.41094         0.95243         0.52599
H           2.60938         0.08172         1.00907
H           3.16962        -0.88405        -1.78988
H           2.03954        -1.90813        -0.92645
H           3.56680        -2.30743         0.85418
H           4.42563        -0.88748         0.57849
H           4.83054        -2.31238        -1.94312
H           4.84241        -3.38519        -0.60758
H           6.02451        -1.88446         0.70525
H           7.57107        -2.86711        -1.53089
H           7.20751        -3.90069        -0.18092
H           8.29882        -2.87708         1.56492
H           7.54082        -1.53167         1.29047
H           9.08460        -1.54946        -1.16471
H          10.11374        -2.24966         0.05987
H           9.81760         0.32812         0.17176
H           8.87686        -0.23599         1.54012
H           7.71837         0.17446        -1.33805
H           7.79560         1.65991         1.08021
H           6.20104         1.01768         1.19946
H           6.70121         2.54061        -1.34365
H           7.18008         3.49122        -0.04922
H           4.95353         4.36552         0.41948
H           2.55856         3.44810        -1.06709
H           2.29085         3.01210         0.62152
H           2.87588         1.24260        -1.83023
H           4.99342         0.49631        -0.57205
H           4.28309         1.41977         0.73386

