%chk=CC1dCCCCNCqCrCSCC1dS.chk
%NProcShared=20
# opt freq b3lyp/6-31g(2df,p)

Title Card Required 

0  1
C           2.32450        -0.07390        -0.16112
C           4.40039        -0.22027        -0.77196
C           3.20658        -0.19880        -1.45373
C           4.59027        -0.21576        -1.66061
C           5.02473        -0.35783        -3.04432
C           6.50654        -0.23731        -3.21758
N           7.00420        -0.19098        -4.41490
C           8.47599         0.22511        -3.15360
C           9.41902        -1.62753        -2.53111
C           8.20060        -0.27890        -5.13358
S          10.23283        -0.56035        -4.51241
C           8.03194        -1.27998        -3.44735
C           6.59153        -0.65753        -1.65580
S           6.20600        -0.04725         0.34846
H           1.04505        -0.12977        -0.93509
H           1.21373         0.84389         0.34378
H           1.19427        -0.75249         0.56023
H           2.55362        -0.28644        -2.26557
H           5.11540        -1.54972        -0.95411
H           5.09422         1.16875        -1.24696
H           4.74480         0.61467        -3.29304
H           4.78075        -1.39918        -3.03863
H           7.20240        -1.54449        -2.45709
H           7.02127         0.91278        -2.42281
H           6.72937         0.65654        -4.67227
H           9.22910         0.80462        -3.34553
H           8.91411        -2.66092        -3.28057
H           8.91717        -1.63576        -1.66165
H          10.39674        -1.66127        -2.86339
H           8.68026         0.26961        -5.88642
H           8.50508        -1.58574        -5.67348
H           9.36596        -1.46895        -4.49811
H           9.39033        -0.69104        -4.43308

