%chk=CC1qCrCdCqCdSrCqSrdCS1.chk
%NProcShared=20
# opt freq b3lyp/6-31g(2df,p)

Title Card Required 

0  1
C           0.96255         0.02218         0.18449
C           2.49571         0.07294         0.15275
C           3.17545         0.03458         1.52737
C           3.00877        -1.10212        -0.64499
C           3.79019        -1.08124        -1.74908
C           4.12596        -2.48435        -2.21138
S           5.04172        -3.04936        -3.49757
C           4.22740         0.19024        -2.33619
S           5.25488         0.31149        -3.74237
C           3.86755         1.39566        -1.84468
S           2.86475         1.71329        -0.50594
H           0.58325        -0.91715         0.59928
H           0.55497         0.10108        -0.83564
H           0.52932         0.84147         0.77114
H           2.96290        -0.89314         2.06918
H           2.87647         0.87074         2.16982
H           4.26961         0.08668         1.41308
H           2.69864        -2.05619        -0.21173
H           3.68941        -3.28154        -1.58013
H           5.42154        -0.99300        -3.99541
H           4.22253         2.29911        -2.32699

