%chk=CCC1CC2NC2OCqCrqCqCCrCCrC1C.chk
%NProcShared=20
# opt freq b3lyp/6-31g(2df,p)

Title Card Required 

0  1
C           1.16621        -0.49660         0.34924
C           2.62995        -0.22844         0.10856
C           2.97793         1.06787        -0.66847
C           4.35060         0.87134        -1.35978
C           5.17914         2.12401        -1.51903
N           5.44383         2.92629        -0.33977
C           4.61784         3.57162        -1.36862
O           3.17827         3.66297        -1.26784
C           2.45978         3.01808        -2.35501
C           3.37280         2.86421        -3.61546
C           1.23551         3.88956        -2.88858
C           1.57801         5.32589        -3.32029
C           2.07862         6.19098        -2.17340
C           0.52768         3.08138        -4.03295
C          -0.74223         3.67737        -4.58340
C           1.92410         1.66940        -1.69158
C           0.55034         1.95848        -1.00213
H           0.98419        -1.38497         0.95147
H           0.67888        -0.67411        -0.61540
H           0.71778         0.34041         0.89626
H           3.06178        -1.10733        -0.38068
H           3.11544        -0.15763         1.09309
H           3.10502         1.80686         0.13438
H           4.18245         0.39936        -2.34241
H           4.96898         0.14789        -0.81120
H           5.95940         2.00051        -2.25833
H           6.39756         3.26483        -0.41526
H           5.11297         4.46341        -1.72469
H           3.70237         3.85586        -3.94771
H           2.89915         2.33707        -4.43722
H           4.29775         2.31920        -3.51068
H           0.52523         4.07976        -2.07738
H           0.66799         5.80791        -3.69210
H           2.28546         5.33339        -4.15095
H           1.34842         6.21386        -1.35666
H           2.24298         7.21194        -2.52175
H           3.02986         5.84815        -1.77083
H           0.29551         2.05888        -3.70852
H           1.18837         2.96957        -4.89445
H          -1.49745         3.77793        -3.80306
H          -1.13012         3.01787        -5.36784
H          -0.54236         4.64562        -5.04361
H           1.75697         0.93139        -2.48504
H           0.67725         2.56924        -0.10259
H          -0.04254         1.08194        -0.77459
H          -0.18707         2.44179        -1.64048

