%chk=CCCCqCOCrOCqCrCCO.chk
%NProcShared=20
# opt freq b3lyp/6-31g(2df,p)

Title Card Required 

0  1
C           0.81102        -0.10477         0.03797
C           2.31822        -0.09870         0.01178
C           2.98428         0.77094         1.08771
C           4.52801         0.77979         0.95073
C           4.91840         1.24772        -0.45707
O           4.49722         0.49080        -1.57864
C           5.02908         1.07452        -2.76303
O           5.11255         1.67117         1.95015
C           6.56320         1.65167         2.07134
C           7.27460         2.31152         0.87844
C           6.97932         2.44694         3.32604
C           8.50303         2.49423         3.50250
O           8.85516         3.26626         4.63162
H           0.44812        -0.71357        -0.79901
H           0.43409         0.91219        -0.10870
H           0.42525        -0.51335         0.97064
H           2.52656         0.29840        -0.97894
H           2.71697        -1.11934         0.05412
H           2.70094         0.41351         2.08608
H           2.60634         1.79947         1.02373
H           4.88889        -0.23862         1.14115
H           5.97021         1.11086        -0.53620
H           4.66490         2.30947        -0.57161
H           4.69698         0.48391        -3.61564
H           6.12422         1.06777        -2.72660
H           4.66993         2.10343        -2.86783
H           6.87911         0.60882         2.19760
H           6.71968         3.19078         0.53762
H           7.45295         1.61539         0.06498
H           8.30327         2.60548         1.04517
H           6.51914         2.02286         4.22748
H           6.57992         3.46930         3.26997
H           9.02443         2.96525         2.66905
H           8.91063         1.48115         3.60569
H           8.64008         4.19877         4.39833

