%chk=CCCCCC1NC1OC1CC1C.chk
%NProcShared=20
# opt freq b3lyp/6-31g(2df,p)

Title Card Required 

0  1
C           0.87578        -0.03685         0.00795
C           2.39383        -0.02735        -0.00890
C           2.91564         0.86987        -1.12724
C           4.44026         0.87578        -1.15515
C           4.96576         1.77010        -2.27542
C           6.46216         1.81178        -2.27823
N           7.23636         1.28428        -3.39336
C           7.14937         2.74047        -3.25701
O           8.35123         3.37437        -2.81764
C           8.24173         4.74672        -2.37989
C           7.13056         5.70365        -2.72073
C           7.13050         5.00667        -1.39017
C           7.47213         5.61971        -0.08516
H           0.50761        -0.68493         0.80829
H           0.47975        -0.40686        -0.94316
H           0.48293         0.97134         0.17412
H           2.76368        -1.05006        -0.14690
H           2.76740         0.32529         0.95973
H           2.54522         1.89234        -0.98163
H           2.52982         0.52088        -2.09270
H           4.81874        -0.14472        -1.28830
H           4.82062         1.23260        -0.18972
H           4.58534         2.78845        -2.12625
H           4.57663         1.42655        -3.24157
H           6.90338         1.69496        -1.29689
H           6.65000         0.97840        -4.16400
H           6.56873         3.22896        -4.02553
H           9.19924         5.25835        -2.29921
H           6.38278         5.43449        -3.45537
H           7.35956         6.76671        -2.72737
H           6.33339         4.28771        -1.25382
H           8.27599         6.35677        -0.15502
H           7.79312         4.82512         0.59811
H           6.58879         6.09398         0.35104

