%chk=CCCqCrdCdC1CCCqdOrSCCC1C.chk
%NProcShared=20
# opt freq b3lyp/6-31g(2df,p)

Title Card Required 

0  1
C           1.10027         0.01015         0.06279
C           2.62308         0.04746        -0.03461
C           3.20785         0.50576        -1.36236
C           2.25469         0.84974        -2.48916
C           4.51101         0.58088        -1.52795
C           5.80970         0.62437        -1.74014
C           6.59100         1.92681        -1.64567
C           6.92533         2.57825        -2.98961
C           5.73774         2.58374        -3.92147
O           4.71674         3.23101        -3.70849
S           5.90368         1.60422        -5.37836
C           5.73968        -0.05257        -4.64376
C           6.94759        -0.45515        -3.78820
C           6.61354        -0.56519        -2.28065
C           5.92089        -1.90995        -2.03508
H           0.77763        -0.31522         1.05557
H           0.67692        -0.69093        -0.66571
H           0.67208         1.00362        -0.11250
H           3.00214        -0.95804         0.18983
H           2.99608         0.71132         0.75547
H           1.19820         0.75816        -2.22668
H           2.40586         0.18375        -3.34433
H           2.39267         1.88662        -2.80767
H           7.52980         1.73268        -1.10988
H           6.03882         2.64656        -1.02931
H           7.78956         2.09610        -3.45312
H           7.25320         3.61306        -2.84409
H           5.62961        -0.77000        -5.46207
H           4.79928        -0.09593        -4.09107
H           7.81063         0.19928        -3.94460
H           7.32058        -1.42648        -4.13950
H           7.56467        -0.59841        -1.72901
H           4.98785        -1.98549        -2.60352
H           5.69441        -2.04956        -0.97422
H           6.56757        -2.73484        -2.35331

