%chk=CCdCCCCCCCCOCqCCCrCCO.chk
%NProcShared=20
# opt freq b3lyp/6-31g(2df,p)

Title Card Required 

0  1
C           1.03580         0.09245         0.02023
C           2.52803         0.08293         0.03255
C           3.23096        -0.61678         0.92087
C           4.72927        -0.62938         0.93730
C           5.24976        -1.51373         2.05964
C           6.77016        -1.52558         2.06911
C           7.24783        -2.42974         3.19003
C           8.75437        -2.51694         3.22151
C           9.16977        -3.50376         4.32221
C          10.66885        -3.52864         4.35436
O          11.28808        -4.25393         5.39402
C          12.72712        -4.10248         5.36129
C          13.23221        -2.63602         5.54820
C          12.94431        -1.63723         4.41542
C          13.48872        -0.25626         4.67470
C          13.26194        -5.00526         6.48917
C          14.78319        -5.06594         6.53482
O          15.21311        -5.92973         7.57645
H           0.67227         0.73047        -0.78940
H           0.64655         0.48556         0.96430
H           0.64663        -0.91740        -0.14129
H           3.04078         0.67849        -0.72331
H           2.70857        -1.21035         1.67364
H           5.10429         0.39148         1.07601
H           5.10400        -1.00348        -0.02287
H           4.87684        -2.53923         1.93576
H           4.87934        -1.15406         3.02877
H           7.15638        -0.50837         2.20922
H           7.14984        -1.88853         1.10623
H           6.83919        -3.43711         3.05608
H           6.88643        -2.05095         4.15382
H           9.17511        -1.51527         3.40429
H           9.14700        -2.83861         2.24794
H           8.75294        -4.49943         4.17219
H           8.81054        -3.13240         5.29139
H          10.80219        -2.50926         4.63109
H          11.11368        -3.76120         3.37885
H          13.08873        -4.50022         4.40417
H          14.32304        -2.65052         5.63246
H          12.84050        -2.24788         6.49613
H          11.90516        -1.36652         4.30843
H          13.26370        -2.04941         3.45333
H          13.08782         0.12013         5.62268
H          13.12067         0.40590         3.88205
H          14.57533        -0.24161         4.69102
H          12.86065        -6.02214         6.37423
H          12.86833        -4.67138         7.45908
H          15.23051        -4.08881         6.72964
H          15.18026        -5.44089         5.58652
H          14.90539        -5.54188         8.41416

