%chk=CCOCCOCCC1dCqCOOrC1.chk
%NProcShared=20
# opt freq b3lyp/6-31g(2df,p)

Title Card Required 

0  1
C           0.98332         0.04642         0.09122
C           2.49382         0.06930         0.08971
O           2.96884        -1.26762         0.17890
C           4.39086        -1.27796         0.17946
C           4.87030        -2.70414         0.27427
O           6.29140        -2.68926         0.27205
C           6.76127        -4.01989         0.35944
C           8.27250        -4.01465         0.35660
C           8.71825        -5.37866         0.45818
C           9.76554        -6.14952         0.48811
C          10.54813        -7.38779         0.58354
O          11.95698        -7.13758         0.56841
O          12.54871        -8.47639         0.66047
C           8.15891        -6.61666         0.62905
H           0.58929         1.06325         0.02344
H           0.60585        -0.42363         1.00505
H           0.60586        -0.54076        -0.75214
H           2.86135         0.64333         0.94693
H           2.86136         0.52443        -0.83614
H           4.77735        -0.70358         1.02991
H           4.77723        -0.82141        -0.73968
H           4.49853        -3.28983        -0.57541
H           4.49936        -3.17194         1.19454
H           6.38328        -4.59808        -0.49452
H           6.38579        -4.47740         1.28499
H           8.65410        -3.43204         1.20193
H           8.65488        -3.54686        -0.55674
H          10.32197        -8.01269        -0.28169
H          10.32009        -7.88176         1.52954
H          13.48029        -8.19781         0.64011
H           7.79128        -6.83231         1.62158
H           7.68427        -7.04901        -0.24028

