%chk=CdCCCCqdNrCqOrCCC1dCCdC1.chk
%NProcShared=20
# opt freq b3lyp/6-31g(2df,p)

Title Card Required 

0  1
C           1.06548        -0.06767         0.05666
C           2.40356        -0.06106         0.05317
C           3.16509         0.94048        -0.74771
C           4.67268         0.79737        -0.62906
C           5.40009         1.82782        -1.46872
N           4.80605         2.71769        -2.20193
C           6.92416         1.79062        -1.44963
O           7.36993         0.51676        -1.90179
C           7.48115         2.90577        -2.33275
C           8.97829         2.88508        -2.31038
C           9.66205         3.92631        -3.14166
C          10.95946         4.17569        -3.34478
C          10.62468         5.25424        -4.21080
C           9.30875         5.00570        -4.01099
H           0.51292        -0.79576         0.63843
H           0.49830         0.65580        -0.52350
H           2.95169        -0.79432         0.63856
H           2.87822         1.94802        -0.41940
H           2.88140         0.83468        -1.80339
H           4.98811        -0.19966        -0.96144
H           4.99707         0.91099         0.41257
H           3.78819         2.68325        -2.15978
H           7.26297         1.91508        -0.41443
H           7.12699         0.44360        -2.84221
H           7.11103         3.88006        -1.98641
H           7.13162         2.77718        -3.36648
H           9.37879         1.91348        -2.62612
H           9.36484         2.97455        -1.28726
H          11.86237         3.70348        -2.96936
H          11.24073         5.94499        -4.76689
H           8.36505         5.42240        -4.34668

