%chk=CdCN1CqOCrdNC1dSd[SH]C.chk
%NProcShared=20
# opt freq b3lyp/6-31g(2df,p)

Title Card Required 

0  1
C           1.01977        -0.11475        -0.01823
C           2.35212        -0.00708        -0.03469
N           3.00396         1.17305        -0.14259
C           4.11518         1.60413        -0.77174
O           4.97120         1.06213        -1.63679
C           4.83207        -0.29353        -2.07731
N           4.01780         2.81073        -0.31145
C           2.89665         2.41550         0.36706
S           1.95357         3.21980         1.53314
S           0.63831         2.04983         2.10976
C          -0.34859         2.94683         3.31491
H           0.51591        -1.06178         0.12075
H           0.38708         0.75578        -0.17009
H           2.96846        -0.89827        -0.00057
H           5.61765        -0.49251        -2.81588
H           3.86596        -0.45787        -2.56284
H           4.98312        -0.97565        -1.23795
H           1.33114         1.21525         2.85225
H          -0.87262         3.77482         2.83169
H           0.25588         3.30271         4.15042
H          -1.10029         2.24739         3.69725

