%chk=CdCqCCCrCCCCqCCqOrOrCCqCrCC.chk
%NProcShared=20
# opt freq b3lyp/6-31g(2df,p)

Title Card Required 

0  1
C           0.96384        -0.01142        -0.19347
C           2.31905         0.08849        -0.17306
C           3.05166         0.85427         0.92004
C           2.14787         1.56665         1.92713
C           2.93551         2.32282         2.97600
C           3.07140        -0.61579        -1.28768
C           4.54151        -0.25468        -1.40920
C           5.35217        -1.29586        -2.16626
C           6.81516        -1.23119        -1.69961
C           7.00593        -1.74710        -0.22500
C           6.32895        -1.16023         1.02813
O           5.08547        -1.76187         1.29141
O           7.06506        -1.46293         2.20737
C           7.68653        -2.01891        -2.73084
C           9.22200        -1.88041        -2.56158
C           9.74932        -2.42581        -1.23270
C           9.95251        -2.62574        -3.69553
C          11.46682        -2.47877        -3.57209
H           0.34146         0.45966         0.55123
H           0.45464        -0.57900        -0.95710
H           3.72154         1.59150         0.45864
H           3.68091         0.17489         1.50166
H           1.51679         0.82962         2.43936
H           1.49500         2.26985         1.39878
H           3.56415         1.64349         3.55973
H           2.24262         2.82240         3.65959
H           3.57263         3.08055         2.51185
H           2.60111        -0.40043        -2.25233
H           2.97481        -1.69854        -1.11645
H           4.94679        -0.19104        -0.42562
H           4.72055         0.76543        -1.75931
H           5.25010        -1.10890        -3.24450
H           4.98790        -2.31670        -1.99216
H           7.14397        -0.18351        -1.75522
H           8.00753        -1.46741         0.01545
H           6.93102        -2.84009        -0.21341
H           6.31411        -0.06205         0.96361
H           4.42255        -1.52796         0.63420
H           8.00628        -1.31408         2.05305
H           7.43370        -1.65621        -3.74222
H           7.39910        -3.07873        -2.72636
H           9.46606        -0.81197        -2.63633
H           9.33224        -3.41706        -1.02902
H           9.59232        -1.74379        -0.41000
H          10.82980        -2.48649        -1.16853
H           9.63533        -2.24190        -4.67245
H           9.68504        -3.68950        -3.66603
H          11.74573        -1.42028        -3.57363
H          11.98002        -2.99787        -4.38036
H          11.85692        -2.92541        -2.65424

