%chk=COc1dc-o-c2ccc-2-cdc-cdn-c2cc-1n2.chk
%NProcShared=20
# opt freq b3lyp/6-31g(2df,p)

Title Card Required 

0  1
C           1.16876        -0.06815        -0.10205
O           2.75657        -0.05603        -0.39623
C           4.28339        -0.01860        -1.33624
C           4.67699        -0.08738         0.36513
O           5.16998        -0.15622         2.03385
C           6.53422        -0.16983         2.35423
C           7.33781        -0.22316         3.60773
C           8.88947        -0.22193         3.62616
C           7.44927        -0.11913         1.13378
C           6.68927        -0.06488        -0.18146
C           7.17676        -0.02238        -1.21171
C           7.04310         0.03246        -2.54131
N           7.54409         0.07371        -3.54137
C           6.71866         0.11156        -4.45844
C           5.73548         0.13775        -5.13544
C           5.01953         0.06756        -3.32071
N           4.99267         0.11783        -4.61110
H           0.70301        -0.02852        -1.06295
H           0.75343         0.78472         0.52032
H           0.75342        -0.96938         0.44797
H           6.83398        -0.26113         4.57153
H           9.81417        -0.23801         4.14820
H           6.77819         0.18225        -6.17098

