%chk=COCdCqCCOrCCqCrCCCCO.chk
%NProcShared=20
# opt freq b3lyp/6-31g(2df,p)

Title Card Required 

0  1
C           0.98265         0.20643        -0.02097
O           2.38795         0.17120        -0.01254
C           3.12690         1.29929        -0.13263
C           4.47583         1.20946        -0.09622
C           5.16890        -0.13468         0.12100
C           4.35115        -1.41761         0.25637
O           5.21472        -2.54789         0.33645
C           5.32876         2.46579        -0.27150
C           6.86603         2.26873        -0.32189
C           7.32728         1.46870        -1.55233
C           7.60102         3.62689        -0.35803
C           9.11694         3.41481        -0.30767
C           9.88913         4.70819        -0.44316
C          11.38163         4.41100        -0.43711
O          12.10675         5.62121        -0.56889
H           0.65681        -0.83544         0.08390
H           0.60757         0.58669        -0.97198
H           0.60446         0.77020         0.83242
H           2.57702         2.21802        -0.26388
H           5.87778        -0.06325         0.95413
H           5.74618        -0.37183        -0.76016
H           3.73577        -1.56171        -0.64012
H           3.72957        -1.39472         1.15350
H           5.65386        -2.61732        -0.52892
H           5.09400         3.15036         0.55828
H           5.01839         2.98592        -1.18883
H           7.17211         1.75979         0.60224
H           7.11531         2.02070        -2.47026
H           6.88741         0.49615        -1.69075
H           8.39024         1.22954        -1.49819
H           7.29239         4.25950         0.48309
H           7.33265         4.16421        -1.27689
H           9.45157         2.78213        -1.13373
H           9.38446         2.89453         0.62026
H           9.63054         5.39922         0.36488
H           9.61754         5.20564        -1.38269
H          11.65883         3.74523        -1.26306
H          11.67628         3.92569         0.49901
H          11.83325         6.02766        -1.40882

