%chk=CSNC1dCCdCC2dCCdCNdNSS[SH]21.chk
%NProcShared=20
# opt freq b3lyp/6-31g(2df,p)

Title Card Required 

0  1
C           0.97516         0.09692         0.11343
S           2.74561        -0.07505        -0.07121
N           3.28236         0.64478         1.32565
C           4.65634         0.64230         1.50372
C           5.24666         0.36675         2.69557
C           6.65298         0.47693         3.02891
C           7.56773         0.94743         2.18568
C           7.24729         1.50076         0.88897
C           8.14206         2.15806         0.17052
C           7.75377         3.00631        -0.92722
C           8.48889         3.32273        -1.96267
N           7.85873         3.76168        -3.10411
N           7.38555         2.77812        -3.73290
S           5.72854         2.46954        -3.38918
S           5.72021         0.74781        -1.94431
S           5.62143         1.50083         0.28229
H           0.53831        -0.26439        -0.82084
H           0.66319         1.13309         0.26465
H           0.61581        -0.53170         0.93062
H           2.73456         0.65466         2.18718
H           4.65461         0.00771         3.54090
H           6.96824         0.17364         4.03180
H           8.60226         1.02487         2.51682
H           9.19599         2.12849         0.41945
H           6.69549         3.27832        -0.99334
H           9.53081         3.02432        -2.03848
H           5.16247         2.76192         0.32063

