%chk=CtCCCCCOCqCrqOrCqCrO.chk
%NProcShared=20
# opt freq b3lyp/6-31g(2df,p)

Title Card Required 

0  1
C           1.06472         0.01863        -0.07392
C           2.36858         0.01863        -0.07392
C           3.88858         0.01863        -0.07392
C           4.40826        -1.05991        -0.97890
C           5.92905        -1.04719        -0.97982
C           6.38444        -2.15412        -1.89745
O           7.79922        -2.22769        -1.93586
C           8.28865        -3.27139        -2.78848
C           7.76465        -4.64800        -2.34487
O           7.90086        -3.00784        -4.13474
C           9.85358        -3.23143        -2.74462
C          10.41600        -3.42572        -1.33910
O          10.45899        -4.21331        -3.60221
H          -0.00101         0.02048        -0.07315
H           4.23705        -0.12970         0.95470
H           4.23538         1.00520        -0.40263
H           4.02680        -0.91120        -1.99759
H           4.03548        -2.03735        -0.64457
H           6.32365        -1.20725         0.03118
H           6.31954        -0.08057        -1.31879
H           5.98456        -1.97057        -2.89995
H           5.96777        -3.08552        -1.50688
H           6.67750        -4.72633        -2.44000
H           8.00080        -4.83710        -1.29248
H           8.15987        -5.45654        -2.96273
H           6.95798        -3.22422        -4.22329
H          10.18946        -2.25649        -3.11828
H          10.15131        -4.40910        -0.93751
H          10.05490        -2.65680        -0.65039
H          11.50998        -3.39430        -1.35887
H          10.12813        -5.08868        -3.34970

