%chk=OdC1CCC[C]CCCCCCCCOOC1.chk
%NProcShared=20
# opt freq b3lyp/6-31g(2df,p)

Title Card Required 

0  1
O           1.04206         0.15493        -0.07910
C           2.28396         0.15547        -0.07443
C           3.04767        -1.13674        -0.15245
C           2.94516        -1.84752         1.17899
C           3.82121        -3.08372         1.15134
C           4.19526        -3.45657         2.49347
C           5.17486        -3.25658         3.53323
C           4.84449        -2.02402         4.34763
C           6.09464        -1.57045         5.08023
C           5.80746        -0.33714         5.92429
C           6.16467         0.94545         5.17407
C           4.92860         1.53668         4.50278
C           5.28362         2.74446         3.64935
C           4.04675         3.30932         2.95508
O           4.02639         2.91553         1.57914
O           3.17257         1.73375         1.49510
C           3.09387         1.42075         0.11205
H           4.09698        -0.91937        -0.38756
H           2.65915        -1.75628        -0.96597
H           1.90956        -2.11474         1.41975
H           3.26010        -1.14881         1.96468
H           4.78378        -2.81382         0.69507
H           3.40299        -3.89590         0.55693
H           6.09214        -3.04239         2.96921
H           5.36025        -4.13203         4.15279
H           4.02230        -2.22323         5.04482
H           4.50425        -1.21877         3.69175
H           6.89697        -1.37466         4.35522
H           6.44824        -2.38617         5.71855
H           6.39900        -0.39858         6.84262
H           4.75415        -0.32091         6.23254
H           6.95156         0.76652         4.43026
H           6.57567         1.67058         5.88599
H           4.20755         1.82334         5.27844
H           4.43756         0.79695         3.86882
H           6.04553         2.46244         2.91301
H           5.71527         3.50482         4.30985
H           4.11273         4.40122         2.96768
H           3.11229         3.03435         3.45978
H           4.10084         1.26443        -0.29138
H           2.61781         2.22739        -0.45399

