%chk=Odc1ccccq[SH]qdOrdSrcn1.chk
%NProcShared=20
# opt freq b3lyp/6-31g(2df,p)

Title Card Required 

0  1
O           2.30520         0.33494        -0.36658
C           3.30173         0.57872         0.42535
C           3.03901         0.16427         1.78048
C           4.17276        -0.45563         2.03423
C           5.35239         0.16409         2.67468
C           6.38820         0.47005         1.83590
S           7.59285         0.13287         0.63578
O           8.41210        -0.86940         1.20115
S           6.97647        -0.47722        -0.99584
C           5.58674         1.55819         1.19316
N           4.55867         1.39986         0.31660
H           2.25008         0.84392         2.19933
H           4.69539        -0.89312         1.14781
H           4.93140         0.98172         3.35235
H           8.37106         1.23956         0.38440
H           5.88277         2.27988         2.10790

