%chk=OdCdCdC1CC12CCdCCCdN2.chk
%NProcShared=20
# opt freq b3lyp/6-31g(2df,p)

Title Card Required 

0  1
O           1.07239         0.10522        -0.01109
C           2.23750         0.06242        -0.08206
C           3.44009         0.01743        -0.12100
C           4.70449         0.02773        -0.01087
C           5.83651        -0.45275        -0.62101
C           5.59799         0.89213         0.65469
C           5.40264         0.72139         2.16729
C           6.16638         1.53629         3.17395
C           6.00513         2.85202         3.33510
C           5.52699         3.77046         2.28385
C           5.37809         3.36280         0.81740
N           5.45567         2.25037         0.12981
H           5.85486        -0.29922        -1.70475
H           5.92413        -1.53390        -0.46087
H           5.48292        -0.32714         2.47149
H           4.34529         0.98749         2.35722
H           6.69996         1.00080         3.95204
H           6.29369         3.33348         4.27422
H           6.28733         4.57118         2.26019
H           4.59941         4.25426         2.60915
H           5.12215         4.24944         0.20574

