%chk=CC1[C]NCCCCNN[C]CCdNNqCrCCCC1.chk
%NProcShared=20
# opt freq b3lyp/6-31g(2df,p)

Title Card Required 

0  1
C           3.33224         1.05668        -0.65436
C           5.86349         2.30433        -1.36004
C           3.72667         1.68107        -0.66894
N           4.93635         1.85920        -0.88562
C           4.73474         3.24422        -0.84265
C           6.82663         2.99993        -0.42199
C           6.92824         4.10618        -1.14094
C           8.67392         4.23105        -0.68084
N           9.08877         5.48088        -1.54382
N          10.33563         5.21838        -1.52869
C          10.50748         6.73311        -1.38050
C          12.35806         6.46811        -1.62857
C          12.63277         8.17736        -1.67770
N          14.18964         8.07729        -1.71415
N          14.00080         8.95597        -2.76782
C          13.51397        10.73950        -3.32122
C          15.51147         8.86080        -3.01630
C          13.16612         8.13044        -3.23591
C          10.83808         6.09187        -2.86128
C           8.38132         4.14689        -2.24146
H           1.56053         0.76698         0.26519
H           1.81707        -0.18838        -0.07404
H           1.46319         0.39306        -0.87660
H           4.71914         0.95779        -0.15296
H           4.86118         0.48199        -1.18999
H           4.52115         3.42189         0.01499
H           4.51744         2.90553        -1.87657
H           7.41039         1.69557        -1.04717
H           6.84822         2.36530         0.27052
H           6.58829         4.76101        -0.54379
H           6.59277         4.21266        -2.24105
H           9.31290         3.07694        -1.71317
H           8.94181         3.62332        -0.07423
H           8.63071         6.05263        -0.98971
H          10.74303         4.57578        -2.31492
H          12.84248         5.78326        -2.70925
H          12.89345         6.35172        -0.87111
H          12.07496         8.79581        -2.67652
H          12.68085        10.24105        -3.20566
H          13.85770        10.89787        -4.35018
H          13.87766        11.42297        -2.62900
H          16.57292         9.05076        -3.82504
H          16.52861         9.57115        -2.10252
H          14.58562         9.86379        -3.08608
H          14.53140         9.60834        -3.83682
H          12.56469         7.08568        -2.97713
H          12.52967         7.06591        -3.23265
H           7.39240         2.64880        -2.11259
H           7.24954         2.75021        -2.26882

