%chk=CC1dC2CCdCdCNCdCCqdCdC1rC2.chk
%NProcShared=20
# opt freq b3lyp/6-31g(2df,p)

Title Card Required 

0  1
C           1.03993         0.39537        -0.31276
C           2.50576         0.07687        -0.54861
C           3.15485        -1.37467        -0.55641
C           2.43955        -2.68973        -0.35415
C           1.04557        -2.34287        -0.50055
C           0.23116        -3.36332        -0.68954
C          -0.43215        -3.99993         0.14967
N          -0.56118        -3.09159         1.19689
C           0.86019        -2.42880         1.99237
C           2.26657        -1.71361         1.91592
C           3.82678        -0.85802         1.11610
C           4.04018         0.53213         0.89180
C           3.25921         1.11871        -0.06346
C           4.33269        -1.49981         0.05239
H           0.49378        -0.38558        -0.77122
H           0.65099         1.12477        -0.99005
H           0.72679         0.56210         0.75567
H           2.73087        -3.26538         0.59884
H           2.73014        -3.43552        -1.06123
H           0.63934        -1.59393         0.28066
H          -0.21505        -4.93916         0.67175
H          -1.40698        -2.57086         0.87096
H           0.19723        -3.08331         2.65970
H           3.15931        -1.93407         2.57758
H           2.95145         2.17053        -0.06779
H           4.91560        -2.37838         0.42229
H           5.07688        -1.29893        -0.79304

