%chk=CC1qCrCC2qCCCCCqdOrC2OrCSN1.chk
%NProcShared=20
# opt freq b3lyp/6-31g(2df,p)

Title Card Required 

0  1
C           1.05231        -0.19909        -0.01736
C           2.56271        -0.12915        -0.14775
C           2.86876         0.40633        -1.57065
C           3.08382         0.82152         0.95146
C           4.62287         0.84400         1.06950
C           5.12551         2.22032         0.50703
C           6.65180         2.34024         0.43651
C           7.24083         2.60920         1.81626
C           7.61328         1.36431         2.60976
C           6.56539         0.29773         2.67022
O           6.91675        -0.90210         2.78803
C           5.08020         0.69090         2.57106
O           4.29195        -0.31471         3.21732
C           5.28049        -0.30712         0.23035
S           4.58567        -1.84038        -0.41459
N           3.06381        -1.49944         0.04617
H           0.63561         0.79418        -0.20357
H           0.74523        -0.51616         0.98405
H           0.63641        -0.89268        -0.75332
H           2.39115         1.37781        -1.71530
H           2.49239        -0.29435        -2.32323
H           3.92756         0.56316        -1.80389
H           2.62844         0.55195         1.91304
H           2.69381         1.83357         0.76595
H           4.71758         3.06410         1.08898
H           4.72568         2.36833        -0.50537
H           6.89972         3.17044        -0.23679
H           7.11313         1.45728        -0.01665
H           6.54088         3.21372         2.40286
H           8.14496         3.21386         1.69399
H           7.81723         1.63844         3.64867
H           8.52398         0.92127         2.18671
H           4.93711         1.60580         3.16044
H           4.47885        -1.16040         2.76863
H           5.71700         0.11324        -0.67049
H           5.88872        -0.85967         0.90893
H           2.97012        -1.78672         1.02128

