%chk=CCC1dCCCqCNNCCSCNrO1.chk
%NProcShared=20
# opt freq b3lyp/6-31g(2df,p)

Title Card Required 

0  1
C           1.03345         0.01758        -0.08700
C           2.55583         0.03754        -0.04037
C           3.02881         0.71808         1.20268
C           2.88896         2.00978         1.47085
C           3.33925         2.26747         2.84800
C           4.01892         0.93781         3.19816
C           3.67368         0.47734         4.62382
N           4.13128         1.46064         5.62344
N           3.74951         1.01349         6.95047
C           4.20871         2.02741         7.92108
C           3.84443         1.62954         9.36135
S           4.47460         2.92584        10.48978
C           3.93300         2.29692        12.09809
N           4.34372         3.26537        13.09934
O           3.58078        -0.05008         2.22600
H           0.68185        -0.42588        -1.02257
H           0.62061         1.03151        -0.02542
H           0.62375        -0.56179         0.74721
H           2.93776         0.58044        -0.91384
H           2.94836        -0.98287        -0.10670
H           2.42208         2.73548         0.82139
H           2.47075         2.47651         3.48241
H           4.03554         3.10684         2.91479
H           5.10987         1.03141         3.09725
H           4.13975        -0.49897         4.80723
H           2.58877         0.32370         4.70052
H           3.69055         2.36370         5.41821
H           4.21473         0.12677         7.16998
H           3.74277         2.99317         7.68119
H           5.29712         2.14610         7.83096
H           4.30532         0.66802         9.61184
H           2.75720         1.53673         9.46063
H           4.40195         1.33030        12.30539
H           2.84580         2.18443        12.12747
H           5.35374         3.38108        13.03552
H           4.13797         2.92468        14.03395

