%chk=CCC1CdCCCqCCCCdOrC2CqCrCqOrC12.chk
%NProcShared=20
# opt freq b3lyp/6-31g(2df,p)

Title Card Required 

0  1
C           1.02659        -0.00557        -0.04465
C           2.56753        -0.02733        -0.02687
C           3.00728        -0.46051         1.35836
C           3.95291         0.47624         2.03235
C           3.65438         0.90719         3.26453
C           2.40053         0.44181         3.96082
C           2.62282        -0.98582         4.50462
C           3.76088        -0.93400         5.56285
C           3.85888        -2.17454         6.46128
C           5.19679        -2.20062         7.19205
C           5.34552        -3.46420         8.00406
O           6.30843        -3.68858         8.70771
C           2.83901        -2.07094         3.31731
C           4.11487        -2.91339         3.49198
C           3.84334        -4.39370         3.58540
C           4.76466        -2.33857         2.23220
O           5.51307        -3.29819         1.46231
C           3.37705        -1.88171         1.72614
H           0.63768         0.43462        -0.96169
H           0.63508         0.59613         0.79154
H           0.62938        -1.01935         0.07681
H           2.89215         1.00793        -0.20128
H           2.96072        -0.65114        -0.83081
H           2.04808        -0.42441         1.85143
H           4.92886         0.66154         1.58784
H           4.40120         1.44091         3.84347
H           1.51354         0.46375         3.31677
H           2.13963         1.16103         4.74304
H           1.70339        -1.25380         5.05026
H           3.62144        -0.06632         6.22278
H           4.71893        -0.74488         5.06112
H           3.77213        -3.10472         5.90383
H           3.01694        -2.21010         7.15805
H           5.27615        -1.33979         7.85974
H           6.02542        -2.17776         6.47289
H           4.52814        -4.20670         7.90626
H           1.90101        -2.66150         3.34135
H           4.79477        -2.62217         4.28453
H           3.23806        -4.73959         2.74402
H           3.31166        -4.64439         4.50741
H           4.80217        -4.91332         3.59159
H           5.42791        -1.50411         2.47712
H           4.99778        -4.12217         1.49017
H           3.08355        -2.58552         0.92844

