%chk=CCC1CCCdCC2dCqCdC2rN1C.chk
%NProcShared=20
# opt freq b3lyp/6-31g(2df,p)

Title Card Required 

0  1
C           0.90736         0.17538         0.17315
C           2.42694         0.03241         0.15071
C           2.95948        -0.89233        -0.95307
C           2.02684        -2.08848        -1.28839
C           2.47544        -3.50162        -0.97259
C           3.33155        -4.31915        -1.88965
C           4.40554        -3.99266        -2.62358
C           5.02799        -2.68346        -2.63103
C           4.99171        -1.58744        -1.85264
C           5.81105        -0.91503        -2.82855
C           5.67755        -1.96591        -3.66931
N           4.41337        -1.19876        -0.75551
C           4.86229        -1.85383         0.49605
H           0.60107         0.93327         0.89404
H           0.41291        -0.74448         0.50277
H           0.52331         0.43904        -0.81846
H           2.76223        -0.31345         1.13088
H           2.86714         1.02676        -0.00305
H           2.92312        -0.26514        -1.86345
H           1.61498        -1.98501        -2.30392
H           1.12879        -2.01206        -0.67714
H           1.55868        -4.08177        -0.80552
H           2.91961        -3.51182         0.01124
H           2.98230        -5.34272        -1.97412
H           4.94142        -4.78302        -3.13998
H           6.21090         0.09224        -2.84311
H           5.88611        -2.18856        -4.71026
H           5.86084        -2.30150         0.37737
H           4.23938        -2.66280         0.87432
H           4.92522        -1.12418         1.30387

