%chk=CCC1dCCCqCOrC2CCCC12.chk
%NProcShared=20
# opt freq b3lyp/6-31g(2df,p)

Title Card Required 

0  1
C           0.88196         0.12652        -0.01691
C           2.39367         0.17811        -0.07386
C           2.84950        -0.09963        -1.47313
C           3.31832         0.91626        -2.25433
C           3.89686         0.72960        -3.61354
C           4.00855        -0.72267        -4.17738
C           5.41531        -1.06465        -4.63023
O           5.87681        -0.09806        -5.57427
C           3.27784        -1.82838        -3.36981
C           3.43829        -3.36406        -3.44553
C           2.80913        -3.93116        -2.15736
C           2.49234        -2.76567        -1.22010
C           3.11814        -1.52134        -1.87339
H           0.52637         0.30878         0.99964
H           0.51373        -0.85161        -0.33470
H           0.44785         0.87769        -0.68496
H           2.83509        -0.56329         0.60299
H           2.75093         1.15348         0.28417
H           3.34141         1.92951        -1.86368
H           4.86569         1.24705        -3.65208
H           3.24241         1.30621        -4.28653
H           3.43202        -0.62837        -5.11039
H           5.42276        -2.03593        -5.12926
H           6.10814        -1.08502        -3.78621
H           5.21825        -0.04612        -6.28995
H           2.34076        -1.78470        -3.92242
H           4.43469        -3.78026        -3.62765
H           2.79822        -3.73536        -4.25721
H           3.49078        -4.64245        -1.67570
H           1.88911        -4.48719        -2.38184
H           3.02670        -2.95318        -0.27939
H           1.42882        -2.73594        -0.95920
H           4.10835        -1.58105        -1.41979

