%chk=CCC1CC2CCdC1CCCCCC2O.chk
%NProcShared=20
# opt freq b3lyp/6-31g(2df,p)

Title Card Required 

0  1
C           1.18288         0.16521         0.22515
C           2.70247         0.51817         0.21629
C           3.46183         0.34660         1.58504
C           4.61058        -0.64997         1.33137
C           4.99716        -1.24504         2.70501
C           6.03247        -0.26366         3.22731
C           5.46184         1.12420         3.08326
C           4.20933         1.42952         2.71282
C           3.69592         2.59112         3.72708
C           2.95991         2.51459         5.15341
C           1.95860         1.39655         5.39210
C           2.69834         0.04612         5.46588
C           2.62407        -0.62129         4.11888
C           3.81379        -1.57481         3.73354
O           3.18692        -2.76332         3.21292
H           0.73646         0.42784        -0.74377
H           0.62466         0.68084         1.00950
H           0.99367        -0.91652         0.33776
H           2.87830         1.48417        -0.24414
H           3.08503        -0.24424        -0.48486
H           2.72763        -0.32048         2.00127
H           5.44109        -0.08502         0.86629
H           4.40207        -1.44727         0.61284
H           5.51814        -2.19344         2.50633
H           6.95549        -0.33258         2.63799
H           6.31192        -0.48720         4.26233
H           6.22184         1.88531         2.84745
H           3.24936         3.40612         3.16313
H           4.64276         3.04953         4.09987
H           2.44009         3.47563         5.31325
H           3.67642         2.50009         5.99902
H           1.19910         1.46067         4.60151
H           1.41953         1.55104         6.33611
H           2.23325        -0.61567         6.19578
H           3.74316         0.21083         5.74665
H           2.48038         0.25396         3.51254
H           1.65329        -1.11255         3.97011
H           4.28771        -1.87712         4.67190
H           2.70987        -2.51019         2.40383

