%chk=CCCCdC1CdCCdC2CdCCdCSSNNdC1S2.chk
%NProcShared=20
# opt freq b3lyp/6-31g(2df,p)

Title Card Required 

0  1
C           1.02140         0.01148         0.11256
C           2.61056        -0.01882         0.12982
C           3.37419        -0.83614         1.46353
C           5.24190        -1.37896         1.75646
C           6.14481        -2.49065         2.78461
C           4.74568        -2.12433         3.51909
C           4.67985        -2.88618         4.54577
C           5.88769        -3.06043         5.20578
C           6.93937        -2.18163         5.41801
C           8.01519        -2.63925         6.24164
C           7.79295        -3.74309         6.94513
C           8.82349        -4.24231         7.73930
C           8.51742        -5.29477         8.48931
S           9.90475        -6.07472         9.12996
S           9.10770        -7.39572         7.65645
N           9.10552        -6.13170         5.94431
N           8.47553        -4.64735         4.90585
C           7.64458        -3.55162         3.73863
S           7.89728        -1.51506         4.08900
H           0.62128         0.51786        -0.79204
H           0.60223         0.55273         0.96954
H           0.59809        -0.99852         0.10566
H           2.89012         1.04328         0.08334
H           2.88511        -0.50932        -0.80247
H           2.74959        -1.74450         1.40209
H           2.84052        -0.20437         2.25300
H           5.40863        -0.58558         0.90670
H           3.73510        -1.65882         3.31633
H           3.76954        -3.29302         4.87510
H           6.00201        -4.15266         5.15483
H           9.06588        -2.34628         6.00649
H           7.05926        -4.49795         6.56676
H           9.86565        -4.01654         7.48373
H           7.65170        -5.91979         8.04192
H           9.97396        -6.12150         6.89743

