%chk=CCCC12CdCC1dCCCqCrC2.chk
%NProcShared=20
# opt freq b3lyp/6-31g(2df,p)

Title Card Required 

0  1
C           1.07098        -0.03937        -0.07781
C           2.60668        -0.05223         0.03412
C           3.26390        -0.48869        -1.25846
C           4.82067        -0.39135        -1.42851
C           5.31149        -1.85593        -1.69916
C           6.22051        -1.89713        -0.71576
C           6.10890        -0.53430        -0.51374
C           6.83468         0.49101        -0.03244
C           5.92206         1.62355         0.08407
C           5.68391         2.05561        -1.36392
C           4.83250         3.29691        -1.24232
C           5.06309         0.91537        -2.27531
H           0.62739         0.21119         0.89167
H           0.67074        -1.01143        -0.38670
H           0.71463         0.70919        -0.79785
H           2.90115        -0.73729         0.83058
H           2.91525         0.95989         0.30317
H           2.78882         0.12846        -2.03935
H           2.90178        -1.48306        -1.55044
H           4.79594        -2.73567        -2.10389
H           6.79171        -2.63847        -0.14065
H           7.87743         0.54190         0.26596
H           6.20567         2.36940         0.82429
H           5.00784         1.18815         0.52417
H           6.64162         2.32467        -1.82869
H           3.89004         3.06913        -0.73341
H           4.63445         3.73733        -2.21677
H           5.37716         4.02470        -0.62768
H           5.66149         0.72187        -3.17462
H           4.12671         1.33059        -2.67462

