%chk=CCCCCdCCCCC1CCCC1CO.chk
%NProcShared=20
# opt freq b3lyp/6-31g(2df,p)

Title Card Required 

0  1
C           0.96969         0.04307        -0.11137
C           2.48678         0.04209        -0.10468
C           3.00942        -0.23906         1.29593
C           4.53233        -0.24391         1.32153
C           4.99811        -0.53500         2.70868
C           6.29282        -0.61828         3.04222
C           6.70403        -0.92028         4.45631
C           8.20686        -0.86959         4.51316
C           8.87585        -1.20690         5.82597
C          10.42223        -1.17549         5.72996
C          11.01384        -2.37850         6.47804
C          12.44857        -2.47519         5.99348
C          12.45439        -1.91406         4.57959
C          11.07034        -1.29375         4.32367
C          11.25543         0.01279         3.52321
O          10.08310         0.65734         3.06779
H           0.59540         0.24517        -1.11818
H           0.57939         0.81208         0.56315
H           0.57972        -0.92693         0.21385
H           2.85731         1.01294        -0.45292
H           2.85739        -0.71929        -0.80050
H           2.63103        -1.20912         1.64476
H           2.63082         0.52035         1.99288
H           4.91393         0.73049         0.99300
H           4.91264        -1.00850         0.63309
H           4.25925        -0.69016         3.48835
H           7.04805        -0.45386         2.27484
H           6.34296        -1.90849         4.75326
H           6.30058        -0.15874         5.13039
H           8.45223         0.16974         4.31212
H           8.58094        -1.53028         3.72426
H           8.51587        -2.17880         6.18302
H           8.55893        -0.47450         6.57981
H          10.78299        -0.25461         6.20923
H          10.48160        -3.30105         6.21447
H          10.95909        -2.26202         7.56570
H          12.81276        -3.50727         6.01815
H          13.10855        -1.87705         6.63139
H          12.64305        -2.70504         3.84462
H          13.26072        -1.18002         4.47130
H          10.50960        -2.02109         3.72551
H          11.83928        -0.19777         2.62344
H          11.80231         0.74513         4.12271
H           9.55317         0.01578         2.56600

