%chk=CCCCCCCCSSCqCrOCCO.chk
%NProcShared=20
# opt freq b3lyp/6-31g(2df,p)

Title Card Required 

0  1
C           1.01155        -0.05645         0.04516
C           2.52986        -0.06399         0.05421
C           3.06152        -0.97833         1.15352
C           4.58691        -0.98887         1.16601
C           5.11378        -1.90490         2.26710
C           6.64145        -1.91707         2.28182
C           7.17092        -2.83227         3.38647
C           8.70098        -2.84537         3.41375
S           9.26068        -3.91060         4.78727
S          11.31983        -3.84230         4.64210
C          11.89258        -5.01911         5.95332
C          11.33049        -6.41609         5.69034
O          13.33238        -5.04424         5.97914
C          13.86506        -5.84389         7.03351
C          15.38915        -5.81807         7.03151
O          15.89584        -6.67987         8.04979
H           0.63942         0.60120        -0.74557
H           0.61870         0.30140         1.00224
H           0.61869        -1.06271        -0.13229
H           2.89841         0.95712         0.20693
H           2.89840        -0.40020        -0.92198
H           2.68710        -1.99785         0.99939
H           2.68719        -0.64096         2.12791
H           4.96198         0.02999         1.32171
H           4.96196        -1.32743         0.19252
H           4.73585        -2.92290         2.11128
H           4.73584        -1.56593         3.23962
H           7.01369        -0.89703         2.43596
H           7.01477        -2.25595         1.30794
H           6.78635        -3.84741         3.22290
H           6.77833        -2.48618         4.35131
H           9.07920        -1.83063         3.57313
H           9.08759        -3.22501         2.46195
H          11.53948        -4.62647         6.91399
H          11.74068        -6.83240         4.76397
H          10.23989        -6.43758         5.64895
H          11.60329        -7.10993         6.49107
H          13.56882        -6.88924         6.91221
H          13.48386        -5.49728         8.00109
H          15.77446        -4.80721         7.19370
H          15.77261        -6.16508         6.06710
H          15.55993        -6.36257         8.90140

