%chk=CCCCCCCCdCC1dCCCCdC1.chk
%NProcShared=20
# opt freq b3lyp/6-31g(2df,p)

Title Card Required 

0  1
C           1.01731         0.10619         0.02764
C           2.53404         0.09759         0.02649
C           3.05956        -1.31910        -0.16400
C           4.58114        -1.33228        -0.16578
C           5.09627        -2.75159        -0.35678
C           6.61696        -2.76647        -0.35947
C           7.13457        -4.18788        -0.55251
C           8.62756        -4.20307        -0.55486
C           9.35013        -5.31989        -0.71974
C          10.80130        -5.29682        -0.69895
C          11.48022        -6.03500        -1.59830
C          12.98316        -6.08879        -1.63284
C          13.67406        -4.92081        -0.91006
C          12.87502        -4.37190         0.23212
C          11.55195        -4.56998         0.31894
H           0.64379         1.12445         0.16456
H           0.62717        -0.51666         0.83896
H           0.62717        -0.28023        -0.91938
H           2.90441         0.50914         0.97268
H           2.90441         0.74446        -0.77738
H           2.68622        -1.73078        -1.10986
H           2.68622        -1.96602         0.63951
H           4.95850        -0.92437         0.77997
H           4.95845        -0.68896        -0.97016
H           4.71998        -3.16003        -1.30262
H           4.72044        -3.39545         0.44777
H           6.99159        -2.35392         0.58666
H           6.99107        -2.11732        -1.16200
H           6.76018        -4.58824        -1.50175
H           6.76288        -4.82436         0.25926
H           9.13977        -3.25064        -0.42587
H           8.85899        -6.27731        -0.87726
H          10.95299        -6.61891        -2.34845
H          13.32624        -6.11552        -2.67341
H          13.29341        -7.03559        -1.17382
H          13.86312        -4.10472        -1.61886
H          14.65072        -5.25546        -0.54366
H          13.38482        -3.78885         0.99137
H          10.99301        -4.15816         1.15468

