%chk=CCCCdCCCdCCCqdCCCCCCqCrCCCCrCC.chk
%NProcShared=20
# opt freq b3lyp/6-31g(2df,p)

Title Card Required 

0  1
C           1.00469         0.07736         0.05667
C           2.52003         0.07653         0.05805
C           3.04523         0.80148        -1.16822
C           4.53657         0.81217        -1.18641
C           5.16870         1.40988        -2.19755
C           6.63904         1.48765        -2.32923
C           7.01238         2.23689        -3.59623
C           8.30541         2.38368        -3.84655
C           9.10388         3.03188        -4.94055
C          10.65273         2.96676        -4.82868
C          11.38576         2.38970        -3.84737
C          10.84715         1.69869        -2.66844
C          11.79590         1.12325        -1.67404
C          10.91178         0.49219        -0.60988
C          11.80287        -0.14236         0.42201
C          10.99856        -0.82749         1.51920
C          10.09522        -1.92563         0.94360
C          11.99614        -1.39181         2.53374
C          11.27787        -2.05374         3.69585
C          12.26101        -2.63859         4.69078
C          11.49666        -3.31496         5.81217
C          11.39247         3.64669        -5.98145
C          12.92192         3.58838        -5.88258
H           0.62812        -0.44454         0.93947
H           0.61825        -0.42562        -0.83566
H           0.61825         1.10162         0.06722
H           2.88893        -0.95611         0.06906
H           2.88893         0.56466         0.96811
H           2.67943         1.83625        -1.17617
H           2.67939         0.30966        -2.07867
H           5.09355         0.33628        -0.38143
H           4.57936         1.87425        -2.98294
H           7.06287         0.47081        -2.34678
H           7.06283         1.99334        -1.44684
H           6.26229         2.63470        -4.26715
H           8.81156         1.90773        -3.04732
H           8.81282         4.08766        -4.97975
H           8.81364         2.55728        -5.88475
H          12.46851         2.39263        -3.85741
H          10.27447         0.83676        -3.03994
H          10.26508         2.43681        -2.09969
H          12.42694         1.90745        -1.24934
H          12.42416         0.36709        -2.15398
H          10.25742        -0.24895        -1.08615
H          10.24612         1.23295        -0.14295
H          12.44408         0.63728         0.85232
H          12.46209        -0.86556        -0.07336
H          10.36858        -0.07740         2.01634
H          10.69471        -2.68359         0.42841
H           9.36046        -1.52854         0.23946
H           9.50479        -2.41735         1.71868
H          12.63696        -0.58284         2.91050
H          12.66001        -2.11300         2.03936
H          10.64559        -2.87072         3.33674
H          10.62161        -1.32270         4.18352
H          12.90645        -1.85031         5.09165
H          12.90257        -3.37136         4.18729
H          10.85336        -2.59500         6.32844
H          12.18989        -3.74785         6.53587
H          10.86055        -4.11584         5.41906
H          11.09169         4.70019        -6.02656
H          11.09148         3.17791        -6.92587
H          13.27027         4.08005        -4.96498
H          13.40504         4.08611        -6.72448
H          13.27028         2.54745        -5.87077

