%chk=CCCCCNCCdCCCNCCqNrS.chk
%NProcShared=20
# opt freq b3lyp/6-31g(2df,p)

Title Card Required 

0  1
C           1.05333         0.01860         0.07446
C           2.57119         0.02523         0.06933
C           3.10237         1.14428        -0.81859
C           4.62787         1.15626        -0.82863
C           5.13856         2.28141        -1.72071
N           6.59875         2.27915        -1.72416
C           7.08995         3.35320        -2.57743
C           8.58221         3.36450        -2.58275
C           9.28566         4.25797        -3.29737
C          10.78353         4.28533        -3.30830
C          11.30283         5.41338        -4.20500
N          12.76413         5.40604        -4.22315
C          13.27722         6.49832        -5.06995
C          14.82805         6.50223        -5.10694
N          15.35809         5.23753        -5.61566
S          15.45113         7.87263        -6.11951
H           0.67931        -0.78627         0.71326
H           0.66209        -0.13471        -0.93643
H           0.66200         0.96827         0.45320
H           2.93965        -0.94273        -0.28972
H           2.93962         0.15496         1.09355
H           2.72816         2.11116        -0.45967
H           2.72810         1.01419        -1.84173
H           5.00123         0.18977        -1.18997
H           5.00325         1.28891         0.19391
H           4.76367         3.24140        -1.34572
H           4.75715         2.14249        -2.73983
H           6.93140         1.38646        -2.08627
H           6.72932         4.31846        -2.20202
H           6.72547         3.21477        -3.60261
H           9.10824         2.63103        -1.97732
H           8.75377         5.00105        -3.88722
H          11.15862         3.32136        -3.67532
H          11.15610         4.42625        -2.28596
H          10.93531         6.37635        -3.82967
H          10.91846         5.27753        -5.22383
H          13.08430         4.50761        -4.57839
H          12.91857         7.45852        -4.67881
H          12.88114         6.37744        -6.08744
H          15.20683         6.65257        -4.09022
H          14.94655         5.04404        -6.52443
H          15.04765         4.49606        -4.99096
H          14.89584         7.49487        -7.27667

