%chk=CCCCOOC1qCrCCqCCOCrd[SH]1.chk
%NProcShared=20
# opt freq b3lyp/6-31g(2df,p)

Title Card Required 

0  1
C           0.89991        -0.08447        -0.07232
C           2.41381        -0.07181        -0.08074
C           2.91858         1.29744        -0.50035
C           4.42602         1.31579        -0.51371
O           4.83674         2.61627        -0.89763
O           6.23228         2.63098        -0.55781
C           6.87657         3.73092        -1.23434
C           7.93829         3.11304        -2.12930
C           7.21455         4.85617        -0.20947
C           6.46198         5.91424        -0.94654
C           6.24908         7.36429        -0.76120
C           6.72780         7.78263         0.61813
O           6.51095         9.17898         0.80007
C           6.95504         9.59056         2.08781
S           5.84482         4.93566        -2.24023
H           0.53028        -1.06884         0.22421
H           0.50905         0.14951        -1.06757
H           0.51344         0.65936         0.63173
H           2.78943        -0.83635        -0.77094
H           2.79274        -0.32184         0.91761
H           2.55301         2.07233         0.18556
H           2.54134         1.56893        -1.49355
H           4.83359         0.59087        -1.22644
H           4.81570         1.08647         0.48615
H           8.48754         2.32758        -1.59936
H           8.65795         3.84672        -2.50071
H           7.46347         2.63063        -2.99479
H           8.27638         5.06094        -0.05568
H           6.76117         4.68217         0.77911
H           5.18573         7.59282        -0.88246
H           6.78454         7.91261        -1.54106
H           7.79759         7.56710         0.72345
H           6.18382         7.22549         1.39013
H           6.77008        10.66194         2.19535
H           8.02851         9.40576         2.19528
H           6.40399         9.05746         2.86900
H           6.72061         5.25331        -3.17162

