%chk=CCCCCCC1CCCdCCqCONOrC1.chk
%NProcShared=20
# opt freq b3lyp/6-31g(2df,p)

Title Card Required 

0  1
C           0.89210         0.07783         0.04437
C           2.40533         0.08241         0.05480
C           2.94441        -0.51213        -1.22990
C           4.46477        -0.49940        -1.19925
C           4.96188        -1.09523        -2.48883
C           6.48343        -1.12621        -2.55345
C           6.96708        -1.74357        -3.87804
C           6.51083        -3.20919        -3.94836
C           7.09216        -4.03489        -5.08364
C           6.59439        -3.69561        -6.45374
C           6.54327        -2.47734        -7.02368
C           7.02158        -1.18429        -6.42547
C           8.54761        -1.11953        -6.44284
O           8.97483         0.13369        -5.90647
N          10.40571         0.05637        -5.66565
O          10.79887         1.33674        -5.10825
C           6.44975        -0.87854        -5.04282
H           0.51176         0.50756         0.97377
H           0.50893        -0.94323        -0.05028
H           0.50911         0.66723        -0.79483
H           2.77411        -0.49619         0.90917
H           2.77432         1.10811         0.16700
H           2.58143         0.05876        -2.09523
H           2.58042        -1.54067        -1.35601
H           4.83787        -1.08534        -0.35250
H           4.83825         0.52537        -1.09738
H           4.55055        -0.50331        -3.31227
H           4.55033        -2.10495        -2.58096
H           6.88484        -1.70024        -1.70874
H           6.88316        -0.10862        -2.45279
H           8.06307        -1.71719        -3.84843
H           5.41901        -3.27129        -4.01370
H           6.79301        -3.69704        -3.00522
H           6.80270        -5.07598        -4.88820
H           8.18605        -4.01441        -5.05818
H           6.27411        -4.54321        -7.05455
H           6.17950        -2.41218        -8.04688
H           6.64190        -0.37668        -7.07005
H           8.91409        -1.20063        -7.47151
H           8.97761        -1.94387        -5.86207
H          10.76585         0.15090        -6.62015
H          10.38660         1.28418        -4.22640
H           5.35824        -0.94376        -5.11840
H           6.66790         0.17368        -4.80666

