%chk=CCCN1CC[PH]qdOrCCqCCrC1.chk
%NProcShared=20
# opt freq b3lyp/6-31g(2df,p)

Title Card Required 

0  1
C           0.85646        -0.08246         0.08118
C           2.36332        -0.03406         0.06247
C           3.01697        -1.19727         0.81772
N           4.49649        -1.24223         0.76497
C           4.94445        -2.58289         0.36581
C           6.44085        -2.84839         0.28744
P           7.21691        -2.02562        -1.10973
O           6.22172        -1.88280        -2.24861
C           7.57507        -0.38754        -0.41543
C           6.52802         0.24760         0.50511
C           6.74409        -0.00791         2.01735
C           5.72612         0.68624         2.92096
C           5.10157        -0.09716         0.06686
H           0.47070         0.76377        -0.49589
H           0.48483        -0.00120         1.10574
H           0.49056        -1.00837        -0.36742
H           2.64791         0.92238         0.51452
H           2.69642        -0.04034        -0.98216
H           2.58405        -2.13528         0.44566
H           2.73148        -1.14243         1.87662
H           4.50591        -2.83635        -0.60541
H           4.54067        -3.29891         1.09403
H           6.60112        -3.92338         0.15646
H           6.97830        -2.61611         1.20820
H           8.40759        -2.69765        -1.43033
H           7.70944         0.26560        -1.28912
H           8.54795        -0.42527         0.08476
H           6.65110         1.33506         0.37770
H           7.75678         0.29160         2.30329
H           6.67012        -1.06626         2.25784
H           5.81594         1.77210         2.85910
H           5.88271         0.36894         3.95628
H           4.69256         0.42269         2.67829
H           4.99790        -0.17428        -1.02028
H           4.57266         0.82318         0.33057

