%chk=CCCqdOrCNCC1CdCCCCCCN1.chk
%NProcShared=20
# opt freq b3lyp/6-31g(2df,p)

Title Card Required 

0  1
C           1.04002         0.04501         0.11487
C           2.55334         0.01942         0.07705
C           3.02946        -0.76674        -1.11385
O           2.23451        -1.26712        -1.92466
C           4.53648        -0.86387        -1.26751
N           4.80980        -1.68322        -2.41593
C           6.21603        -1.81393        -2.70852
C           6.39612        -2.65245        -3.98791
C           6.93837        -1.80933        -5.10852
C           8.08294        -2.10735        -5.74150
C           8.99529        -3.22021        -5.31054
C           8.65153        -4.56890        -5.94547
C           7.39176        -5.26746        -5.40024
C           6.12545        -4.95379        -6.20902
C           5.16925        -3.83673        -5.78192
N           5.19004        -3.38990        -4.40345
H           0.68391         0.62304         0.96880
H           0.64091        -0.97295         0.18679
H           0.64081         0.49239        -0.80253
H           2.95313        -0.44603         0.98371
H           2.95030         1.03632        -0.00826
H           4.95234        -1.34138        -0.37476
H           4.95149         0.14074        -1.38952
H           4.29214        -1.39123        -3.25017
H           6.69186        -2.34787        -1.87552
H           6.70999        -0.83968        -2.80234
H           7.12385        -3.38651        -3.66487
H           6.29207        -1.01811        -5.48567
H           8.35270        -1.54809        -6.63388
H           9.01987        -3.31722        -4.21861
H          10.01859        -2.93420        -5.57454
H           9.50101        -5.23941        -5.76990
H           8.57510        -4.45497        -7.03301
H           7.27036        -5.15115        -4.32066
H           7.56013        -6.34795        -5.49680
H           5.53903        -5.87741        -6.26534
H           6.42240        -4.72341        -7.23901
H           4.14723        -4.17408        -6.00132
H           5.27894        -2.98058        -6.45805
H           5.03529        -4.16276        -3.75660

