%chk=CCCqdOrCCdCqCrCCqOrCCCCN.chk
%NProcShared=20
# opt freq b3lyp/6-31g(2df,p)

Title Card Required 

0  1
C           1.00987         0.04651         0.08234
C           2.52478         0.10268         0.03710
C           2.96650         1.23084        -0.87164
O           2.14786         1.95104        -1.45345
C           4.46289         1.41557        -1.01865
C           4.80649         2.55326        -1.93532
C           6.06932         2.91268        -2.22297
C           7.24906         2.18972        -1.62289
C           6.31905         4.07150        -3.17335
C           7.80463         4.35696        -3.41803
O           8.44321         3.22903        -4.02531
C           8.01791         5.54585        -4.33806
C           9.51673         5.77308        -4.51884
C           9.76795         6.93672        -5.45832
C          11.26369         7.15124        -5.63342
N          11.48767         8.27519        -6.52926
H           0.66278        -0.75935         0.73150
H           0.60409        -0.11486        -0.92279
H           0.60410         0.99424         0.45401
H           2.92748        -0.84121        -0.34614
H           2.92741         0.27610         1.04099
H           4.87741         0.48269        -1.41904
H           4.87533         1.60743        -0.02114
H           3.98418         3.10794        -2.38904
H           6.96526         1.39069        -0.93604
H           7.87091         2.88439        -1.05196
H           7.84387         1.70435        -2.39922
H           5.84286         4.97620        -2.76973
H           5.83266         3.85020        -4.13383
H           8.30207         4.55988        -2.46209
H           7.92379         2.98033        -4.80837
H           7.54381         6.44190        -3.92214
H           7.56318         5.34475        -5.31585
H           9.99397         4.87265        -4.92641
H           9.98110         5.96363        -3.54283
H           9.29627         7.83963        -5.05264
H           9.29733         6.72666        -6.42715
H          11.73126         6.24935        -6.04524
H          11.73087         7.35547        -4.66396
H          11.08428         8.06545        -7.44144
H          12.48827         8.39245        -6.67525

