%chk=CCqCOrOCqNrdCqOrNCCdO.chk
%NProcShared=20
# opt freq b3lyp/6-31g(2df,p)

Title Card Required 

0  1
C           1.07536        -0.10923        -0.06146
C           2.61017        -0.04604        -0.03615
C           3.01763         1.34772         0.48511
O           2.55078         2.38517        -0.37403
O           3.10429        -1.11755         0.78798
C           4.47938        -1.32435         0.87823
N           5.34895        -0.55333         0.15674
C           4.92876        -2.30375         1.70663
O           4.05243        -3.11483         2.39274
N           6.25989        -2.57842         1.92384
C           6.78050        -3.64062         2.76956
C           8.29439        -3.65091         2.77771
O           8.96808        -4.46099         3.41966
H           0.65667         0.67251        -0.70675
H           0.66410         0.02847         0.94511
H           0.71683        -1.07639        -0.42566
H           2.94598        -0.19956        -1.07068
H           4.09548         1.48074         0.58007
H           2.61675         1.50809         1.49073
H           2.90185         2.21776        -1.26558
H           5.04680         0.13919        -0.50455
H           6.33556        -0.61343         0.34824
H           3.15917        -2.82959         2.12744
H           6.91513        -1.99053         1.43510
H           6.44391        -4.61078         2.39297
H           6.44361        -3.49343         3.79971
H           8.79950        -2.88384         2.16946

