%chk=CCqCrCCtCC1dNCCdCCdC1.chk
%NProcShared=20
# opt freq b3lyp/6-31g(2df,p)

Title Card Required 

0  1
C           0.91326         0.03387         0.05674
C           2.43883         0.04574         0.07997
C           2.93852         1.27057         0.85228
C           2.95764        -1.25175         0.70862
C           4.47764        -1.25175         0.70862
C           5.78150        -1.25175         0.70862
C           7.27090        -1.25325         0.67844
N           7.75557        -1.21873         1.85836
C           9.15504        -1.16650         2.27457
C          10.30060        -1.22547         1.31824
C          10.34839        -1.26640        -0.01364
C           9.24036        -1.28065        -0.91560
C           7.93105        -1.27828        -0.64154
H           0.52624         0.94579        -0.40854
H           0.50782        -0.02874         1.07245
H           0.53774        -0.82306        -0.51188
H           2.80465         0.11455        -0.95356
H           2.60315         1.23640         1.89429
H           2.56923         2.19467         0.39882
H           4.03216         1.32701         0.85482
H           2.60322        -2.12451         0.14859
H           2.60518        -1.35207         1.74202
H           9.32240        -1.97851         2.99505
H           9.29431        -0.23602         2.83962
H          11.27335        -1.21738         1.81968
H          11.33351        -1.28197        -0.48609
H           9.53245        -1.30032        -1.96412
H           7.23778        -1.29975        -1.47443

