%chk=CCqCrC1dCNCdCCdC2CdCCdC2N2CdCCNNdC12.chk
%NProcShared=20
# opt freq b3lyp/6-31g(2df,p)

Title Card Required 

0  1
C           1.21451         0.36844        -0.46933
C           2.82971         0.73506        -1.19501
C           3.21811        -1.01617        -0.81770
C           3.65202         1.84719        -2.69028
C           4.67921         1.53313        -1.88183
N           5.51682         2.49436        -1.56071
C           6.76440         2.13263        -1.90109
C           7.30190         2.82629        -2.83473
C           8.54473         3.10835        -3.28403
C           8.65159         4.02498        -4.22134
C           9.99253         4.46893        -4.50058
C           9.88327         5.53002        -5.28993
C           8.34829         5.74590        -5.49115
C           7.50347         4.71947        -4.89154
N           5.85902         4.48050        -4.34449
C           5.70830         5.57867        -3.51224
C           4.47785         5.93187        -3.22381
C           3.38177         5.74791        -4.22452
N           3.50911         4.68511        -5.30738
N           3.85301         3.32515        -5.03710
C           4.59851         3.13929        -3.91013
H           1.21066        -0.41158         0.37967
H           0.57822        -0.17729        -1.17095
H           0.72738         1.17122         0.09790
H           3.22831         1.12196        -0.20069
H           2.77602        -1.67590        -1.57064
H           2.72353        -1.46240         0.11311
H           4.25643        -1.24835        -0.55314
H           4.88469         0.85537        -1.04793
H           5.10206         3.34119        -1.96481
H           7.25121         1.34923        -1.38838
H           6.55225         3.36787        -3.23958
H           9.32618         2.68406        -2.71244
H          10.87670         3.98179        -4.10512
H          10.79703         6.04737        -5.63674
H           8.25491         6.71144        -6.01995
H           6.57032         5.68044        -2.85682
H           4.31637         6.00543        -2.16126
H           3.25779         6.76665        -4.65188
H           2.49405         5.51261        -3.64626
H           2.54819         4.50449        -5.60052

