%chk=CCqdCCCdCONrCCCqCrC.chk
%NProcShared=20
# opt freq b3lyp/6-31g(2df,p)

Title Card Required 

0  1
C           1.06637         0.00199         0.10130
C           2.56722         0.09737         0.02487
C           3.19175         0.95135        -0.80896
C           2.50944         1.90094        -1.73873
C           3.49238         2.71927        -2.50846
C           3.11941         3.64843        -3.39757
O           4.05171         4.42847        -4.02195
N           3.37857         5.25876        -5.00122
C           3.32209        -0.85443         0.93169
C           4.85074        -0.75321         0.81757
C           5.62106        -1.72138         1.71368
C           5.27778        -3.17011         1.37993
C           7.12112        -1.48353         1.52151
H           0.56452         0.70097        -0.57405
H           0.72070         0.22896         1.11378
H           0.73340        -1.00306        -0.17522
H           4.27706         0.97514        -0.83751
H           1.87950         2.57107        -1.14236
H           1.88665         1.32743        -2.43385
H           4.55489         2.57694        -2.33790
H           2.08536         3.85125        -3.63453
H           4.19607         5.67053        -5.45407
H           3.00966         6.00438        -4.41142
H           2.99700        -1.86861         0.67482
H           3.02953        -0.67288         1.97341
H           5.16135         0.26991         1.07117
H           5.14968        -0.93660        -0.22389
H           5.36433        -1.51885         2.76040
H           5.50226        -3.39053         0.33024
H           4.21798        -3.38040         1.54890
H           5.84784        -3.85880         2.00838
H           7.41913        -1.66827         0.48267
H           7.70532        -2.14645         2.16588
H           7.38970        -0.44957         1.76512

