%chk=CCqOrSCSS[O].chk
%NProcShared=20
# opt freq b3lyp/6-31g(2df,p)

Title Card Required 

0  2
C           1.00161         0.03298         0.06152
C           2.52879         0.08304         0.00664
O           3.02241        -1.17241        -0.43018
S           3.00348         1.39192        -1.15205
C           4.83126         1.32993        -1.06002
S           5.45794         2.64716        -2.16643
S           7.48920         2.46598        -2.01755
O           7.88235         3.66460        -3.03574
H           0.66266        -0.76904         0.72681
H           0.56866        -0.18910        -0.92218
H           0.57582         0.97547         0.42417
H           2.92387         0.28740         1.00592
H           2.60502        -1.34101        -1.28972
H           5.19230         0.35688        -1.40522
H           5.16549         1.52013        -0.03568

