%chk=CCqSrCC1qCrCdCC2SCC21.chk
%NProcShared=20
# opt freq b3lyp/6-31g(2df,p)

Title Card Required 

0  1
C           0.57896         0.15101         0.31723
C           2.05648        -0.10794         0.07706
S           1.65650        -1.25445        -1.44800
C           2.82643         1.31917         0.25346
C           4.41492         1.52658         0.22182
C           4.99839         1.49663         1.65730
C           4.83487         2.90252        -0.34541
C           5.11742         2.88862        -1.67701
C           5.17408         1.51538        -2.15310
S           3.61669         0.79663        -2.67978
C           4.46422        -0.49459        -1.61810
C           5.13679         0.62081        -0.82644
H          -0.00461        -0.77947         0.27916
H           0.20797         0.82699        -0.46693
H           0.39716         0.58867         1.29227
H           2.47903        -0.79197         0.82135
H           1.95657        -0.36592        -2.42282
H           2.53234         1.65970         1.26533
H           2.35591         2.07852        -0.38552
H           4.67579         2.38966         2.22168
H           6.09530         1.50818         1.68531
H           4.65413         0.63433         2.23623
H           5.01507         3.78752         0.24459
H           5.42319         3.72988        -2.26747
H           5.83534         1.33530        -3.00143
H           5.09125        -1.13158        -2.23928
H           4.00918        -1.17302        -0.89085
H           6.07263         0.24038        -0.39723

