%chk=CCSCqCrC1CCCdNCCC1C.chk
%NProcShared=20
# opt freq b3lyp/6-31g(2df,p)

Title Card Required 

0  1
C           0.97271        -0.05608         0.06977
C           2.49080        -0.07763         0.08367
S           3.02481        -0.54913         1.75226
C           4.87701        -0.46302         1.61252
C           5.27788         0.82767         0.92845
C           5.45232        -0.67075         3.06214
C           6.41436        -1.89415         3.09254
C           6.79857        -2.33596         4.50389
C           5.59054        -2.55849         5.37686
N           4.82418        -1.70042         5.96049
C           4.86828        -0.24561         5.94114
C           6.12275         0.39999         5.38154
C           6.12162         0.54141         3.83100
C           5.51932         1.92689         3.57251
H           0.60913         0.18992        -0.93221
H           0.58050         0.70123         0.75910
H           0.55495        -1.02885         0.34979
H           2.85521         0.91930        -0.17882
H           2.87221        -0.80387        -0.63891
H           5.17344        -1.30184         0.97139
H           4.67320         1.66104         1.30041
H           5.11022         0.82321        -0.14921
H           6.34492         1.01716         1.07783
H           4.59062        -1.00125         3.64316
H           7.32698        -1.65365         2.53268
H           5.95164        -2.75037         2.58386
H           7.51093        -1.65363         4.95905
H           7.34984        -3.28333         4.46018
H           5.29315        -3.61333         5.48659
H           4.74402         0.09703         6.97349
H           3.98634         0.14048         5.40924
H           7.02574        -0.06839         5.77105
H           6.20009         1.40328         5.82069
H           7.17023         0.58983         3.50506
H           4.42689         1.89091         3.59807
H           5.88339         2.35135         2.63959
H           5.85591         2.67460         4.29579

