%chk=CdC1CCCCqCrdCCqCrdCNdC1CCC.chk
%NProcShared=20
# opt freq b3lyp/6-31g(2df,p)

Title Card Required 

0  1
C           1.71379         0.09364        -0.02124
C           3.36842         0.12908        -0.06403
C           2.84628         1.43418         0.51914
C           4.17149         1.41837         0.52023
C           4.80097         2.52951         0.99821
C           5.96095         1.82363         0.65019
C           7.06518        -0.06260        -0.16959
C           7.18941         2.80864         1.15111
C           8.87937         1.93088         0.79484
C           9.95284         1.13739         0.41732
C           8.14570         2.84989         1.07281
N           7.23539         1.16535         0.47609
C           5.53577         0.27065         0.04575
C           4.18449        -1.36301        -0.66440
C           3.73619        -3.11818        -1.43258
C           2.57116        -4.45952        -2.01116
H           0.76950         0.81653         0.27189
H           0.81227        -0.71442        -0.40546
H           2.68421         1.45965         1.58644
H           2.68102         2.22939        -0.18095
H           4.48881         1.34758        -0.84235
H           4.46276         0.37610         1.40001
H           4.94356         2.49574         2.05737
H           4.94149         3.27727         0.24877
H           6.72427        -0.99104        -0.51830
H           7.80880        -0.32964         0.90759
H           7.80775         0.50890        -1.01431
H           7.09906         4.01452         1.65230
H           9.26155         0.41684         0.08157
H          10.45217         0.74852         1.27572
H          10.44199         1.52041        -0.48779
H           9.19646         3.73134         1.50239
H           2.94928        -1.30563        -1.41805
H           2.94817        -1.86171        -0.12242
H           4.05880        -3.77208        -0.66163
H           4.05875        -3.00574        -2.43817
H           1.93018        -4.99059        -1.27014
H           3.22158        -5.32366        -2.38376
H           1.93021        -4.28550        -2.90655

