%chk=CdC1CCdCCdCCdCCdCCdCCC1.chk
%NProcShared=20
# opt freq b3lyp/6-31g(2df,p)

Title Card Required 

0  1
C           3.19512         0.31776        -0.05360
C           5.27077         0.77073        -0.14743
C           3.35542         0.82058        -1.05231
C           4.79656         0.57763        -1.21486
C           5.43194         1.30978        -2.01767
C           6.69839         1.27798        -1.94001
C           7.73156         1.76814        -2.50462
C           9.06873         1.50814        -2.35601
C           9.92883         2.07428        -3.15823
C          11.16136         1.53114        -3.23964
C          12.09809         2.52697        -3.77609
C          13.35756         1.85267        -3.68944
C          12.48045         2.46273        -2.52693
C          10.43524         1.61819        -1.30960
C           7.94552         1.01371        -0.54747
H           1.43432         0.43988        -0.51926
H           1.51221        -0.18794         0.40503
H           2.79933         1.85601        -1.08086
H           2.81162         0.36203        -2.08039
H           5.91108        -0.29889        -0.91732
H           4.99494         1.84973        -2.63533
H           7.60021         0.89341        -2.00159
H           7.42026         2.27386        -3.25455
H           9.38742         0.74903        -1.34028
H           9.75302         2.70391        -3.88021
H          11.64112         0.57594        -1.96035
H          12.12224         3.17948        -4.55482
H          14.22515         1.65594        -2.58849
H          13.69010         2.99089        -3.80142
H          12.16158         2.04511        -1.68685
H          12.21220         1.53715        -1.98998
H           6.71928         0.45273         0.41665
H           6.97950        -0.24317         0.08028

