%chk=CdC1CCC2COC1dCCdC2CCC.chk
%NProcShared=20
# opt freq b3lyp/6-31g(2df,p)

Title Card Required 

0  1
C           1.17832         0.02445         0.39608
C           2.49037         0.13500         0.09148
C           2.99448         1.37935        -0.51209
C           2.84721         1.10434        -1.99734
C           2.20000        -0.51583        -2.46268
C           3.61902        -0.81826        -2.75134
O           4.26564        -0.72576        -1.42444
C           3.47627        -0.97007        -0.18815
C           3.12571        -2.21222         0.05151
C           2.53302        -2.89872        -1.11353
C           2.23649        -2.21187        -2.25824
C           2.55416        -3.03122        -3.55519
C           2.46706        -2.21993        -4.85748
C           2.69285        -2.96864        -6.13400
H           0.50875         0.84518         0.11139
H           0.66890        -0.90861         0.61627
H           4.05456         1.48785        -0.21628
H           2.50605         2.31205        -0.23553
H           3.90437         1.26378        -2.32136
H           2.38466         1.87856        -2.60950
H           1.29198        -0.44223        -1.86233
H           4.38389        -0.26242        -3.33682
H           3.10879        -0.28262        -3.63131
H           3.98248        -2.84854         0.36064
H           2.69998        -3.97650        -1.11879
H           1.93430        -3.92769        -3.59500
H           3.60455        -3.37048        -3.45760
H           3.28096        -1.49512        -4.93869
H           1.51489        -1.68405        -4.88061
H           3.71533        -3.35954        -6.16541
H           2.59098        -2.24729        -6.95427
H           1.96313        -3.76400        -6.24475

