%chk=CdC1CCCdCdCqCrCqOOrCO1.chk
%NProcShared=20
# opt freq b3lyp/6-31g(2df,p)

Title Card Required 

0  1
C           2.68162        -0.22426        -0.22635
C           4.18543        -0.37451        -0.22974
C           3.50845        -0.42541         1.43194
C           4.84417        -0.36578         1.77873
C           5.34514        -0.37140         3.10583
C           6.57502        -0.37658         3.17619
C           7.86569        -0.51400         2.80688
C           8.76459         0.74104         2.84867
C           8.19614        -1.75474         1.97159
O           8.19438        -2.84783         1.04578
O           6.82873        -3.17677         0.67093
C           7.62381        -0.86384         0.68421
O           5.95817        -0.56440        -0.09046
H           1.80678        -0.27929         0.58281
H           1.89821        -0.00471        -0.97894
H           2.97752        -1.36794         1.73180
H           2.97702         0.46228         1.89810
H           5.09996         0.63464         1.33469
H           5.03284        -1.39227         1.36911
H           4.66983        -0.86166         3.78624
H           8.14089         1.64123         2.97003
H           9.37058         0.99649         1.96235
H           9.47863         0.65562         3.66495
H           8.17287        -2.50667         2.79973
H           6.88713        -2.85647        -0.25570
H           8.39520        -1.18439        -0.11907
H           8.38037        -0.02924         0.77535

