%chk=CdC1CdCCdCCdc2ncccc2dC1.chk
%NProcShared=20
# opt freq b3lyp/6-31g(2df,p)

Title Card Required 

0  1
C           2.34503        -0.17609        -0.18958
C           3.95594        -0.10526         0.24718
C           3.16073         0.31037         1.47713
C           4.15750         0.54535         2.16831
C           4.69516         0.85553         3.31127
C           5.93894         0.82396         3.07814
C           6.95132         0.96912         3.86531
C           7.94568         0.76435         3.05512
N           8.91278         1.29521         4.09818
C          10.15522         1.08436         4.27192
C          10.44591         0.30056         3.05951
C           9.46598         0.04260         1.79739
C           7.61552         0.06716         1.33189
C           5.96113        -0.15213         0.32704
H           1.30438         0.08210         0.61019
H           1.35365        -0.34781        -0.87580
H           2.26593         0.47065         2.06115
H           4.90091         0.53968         1.49160
H           4.25216         1.05372         4.18657
H           6.22022         0.80807         2.08273
H           6.88851         1.31305         4.85938
H          10.96548         1.52997         5.14968
H          11.56140         0.09970         3.37089
H          10.38613        -0.07410         1.20931
H           5.57069        -0.42688        -0.76441

