%chk=CdCC1dCCdCqCCrCqCrdCOCdCCdC1.chk
%NProcShared=20
# opt freq b3lyp/6-31g(2df,p)

Title Card Required 

0  1
C           1.53207         0.01456        -0.42561
C           3.13332        -0.09211        -1.13837
C           4.51056        -0.33798        -2.78328
C           4.63400        -0.13230        -1.40743
C           5.60999        -0.25556        -2.23050
C           6.84803        -0.24743        -2.17595
C           7.57168        -0.08623        -1.09907
C           6.59013         0.06491        -0.08920
C           7.57777        -0.41382        -3.28677
C           6.66483        -0.75031        -5.53565
C           8.66180        -0.42162        -3.34652
O           8.19278        -0.77963        -5.75541
C           9.64330        -0.54109        -4.46844
C          10.24347        -0.88840        -5.80966
C           8.63997        -0.62400        -4.64031
C           6.45785        -0.54245        -4.14845
H           0.69743         0.19065         0.75094
H           0.55780        -0.06928        -0.98582
H           3.10118         0.13987         0.41165
H           4.80517         0.02367        -0.36443
H           5.72341        -0.39244        -3.14521
H           8.07606         0.79980        -1.38236
H           8.07606        -1.01637        -1.11055
H           5.98737         1.02132        -0.31564
H           7.01830         0.20079         0.81868
H           5.98736        -0.91589        -0.02571
H           5.48597        -0.74122        -5.47555
H           6.82383        -1.82884        -5.76151
H           6.82375         0.21505        -6.06740
H           9.62267        -0.34721        -2.84015
H          11.09625        -0.55624        -4.24751
H          10.86998        -0.93378        -7.08248
H          10.20030        -0.75953        -5.61665
H           4.90690        -0.56435        -4.28942

