%chk=CdCCC1dCCCqOCrCdCC1.chk
%NProcShared=20
# opt freq b3lyp/6-31g(2df,p)

Title Card Required 

0  1
C           1.03176         0.01101         0.02094
C           2.36960         0.01177         0.06771
C           3.12564        -0.00599         1.36478
C           4.61751        -0.03539         1.11261
C           5.18604        -1.23864         0.90383
C           6.61494        -1.56788         0.60221
C           7.65223        -0.61993         1.20161
O           7.43325        -0.51330         2.62093
C           8.35996         0.34111         3.27725
C           7.64137         0.73647         0.56935
C           6.61546         1.60207         0.65060
C           5.21124         1.35885         1.09766
H           0.50955         0.01163        -0.92815
H           0.44848         0.00488         0.93488
H           2.93501         0.01181        -0.86299
H           2.82959        -0.88025         1.95794
H           2.86886         0.87775         1.96160
H           4.54662        -2.12149         0.96509
H           6.73084        -1.64075        -0.48665
H           6.80087        -2.57256         1.00504
H           8.64176        -1.06934         1.05371
H           8.10827         0.37286         4.33936
H           8.30191         1.36871         2.90430
H           9.37419        -0.04352         3.15205
H           8.58772         1.08517         0.17083
H           6.82944         2.64099         0.41018
H           4.60361         1.93867         0.38862
H           5.06705         1.81588         2.08451

