%chk=CdCCNCOOCC1CC1CqCrCC.chk
%NProcShared=20
# opt freq b3lyp/6-31g(2df,p)

Title Card Required 

0  1
C           0.90798         0.01119         0.03412
C           2.25235         0.04380         0.04008
C           3.02366         1.31721         0.17137
N           4.45390         1.05078         0.15743
C           5.18852         2.30078         0.28706
O           6.58067         2.04003         0.22920
O           7.23790         3.34377         0.34928
C           8.61744         3.02248         0.31034
C           9.49525         4.20977         0.53521
C          10.07691         4.76124        -0.74842
C           9.39352         5.70026         0.19430
C          10.26644         6.68592         0.97682
C          11.10463         7.55818         0.03478
C           9.40060         7.55353         1.90692
C          10.21619         8.50458         2.77594
H           0.37599        -0.92809        -0.05669
H           0.32457         0.92010         0.12821
H           2.79955        -0.89068        -0.04239
H           2.75139         1.79787         1.11883
H           2.75691         1.98875        -0.65357
H           4.71964         0.63416        -0.73186
H           4.96409         2.78349         1.24417
H           4.93815         2.98207        -0.53385
H           8.84596         2.53481        -0.64712
H           8.82865         2.28312         1.09387
H          10.07072         4.04583         1.43930
H           9.55315         4.58857        -1.68759
H          11.15241         4.74066        -0.85663
H           8.44800         6.12280        -0.12459
H          10.96854         6.11622         1.60267
H          10.46069         8.17616        -0.59763
H          11.74252         6.95358        -0.61617
H          11.77929         8.21813         0.58935
H           8.80168         6.90545         2.55849
H           8.69119         8.13770         1.30869
H          10.92290         7.95257         3.40362
H           9.55676         9.08606         3.42643
H          10.78058         9.22309         2.17435

