%chk=CdCCCNCdCCSCqdCrNCdNO.chk
%NProcShared=20
# opt freq b3lyp/6-31g(2df,p)

Title Card Required 

0  1
C           1.01015         0.06085         0.08071
C           2.35149         0.04389         0.09825
C           3.15436        -0.84342         1.01587
C           4.67080        -0.66245         0.82871
N           5.43871        -1.52578         1.72154
C           6.80916        -1.59225         1.79028
C           7.53660        -2.38062         2.60557
C           9.04973        -2.40219         2.62789
S           9.69263        -3.59857         3.86512
C          11.47279        -3.52858         3.79275
C          12.06676        -2.69072         2.92627
N          12.22164        -4.34749         4.63963
C          13.57564        -4.49462         4.79178
N          14.18099        -5.29126         5.61564
O          15.56958        -5.13095         5.44986
H           0.46908         0.71532        -0.59611
H           0.42534        -0.57454         0.73780
H           2.88700         0.70216        -0.58251
H           2.88714        -1.89080         0.82697
H           2.88714        -0.61946         2.05632
H           4.93642         0.38441         1.01952
H           4.93642        -0.88829        -0.21114
H           4.91825        -2.13296         2.34946
H           7.30075        -0.91685         1.09180
H           7.00638        -3.03871         3.28615
H           9.41408        -1.40037         2.87984
H           9.41408        -2.68764         1.63509
H          11.54013        -2.03613         2.24932
H          13.14551        -2.61911         2.85221
H          11.65481        -4.93237         5.24449
H          14.17472        -3.85200         4.12722
H          15.94202        -5.75767         6.09798

