%chk=CdCdCC1dCOCCqdOrCCOCC1.chk
%NProcShared=20
# opt freq b3lyp/6-31g(2df,p)

Title Card Required 

0  1
C           1.11779         0.08042        -0.06208
C           2.42219         0.09012        -0.04621
C           3.71844         0.12595        -0.01355
C           4.57208        -0.97731         0.39668
C           5.79412        -0.77551         0.93407
O           6.18625         0.38613         1.56343
C           6.91669         0.19496         2.78691
C           6.27376        -0.55253         3.98043
O           6.34464        -0.12707         5.13635
C           5.66831        -1.90354         3.69743
C           4.18785        -1.82037         3.36805
O           3.83345        -3.01988         2.66861
C           3.10520        -2.80265         1.45310
C           4.01858        -2.39327         0.27068
H           0.55600         0.78054         0.54485
H           0.56964        -0.63197        -0.66674
H           4.23221         0.99240        -0.42425
H           6.48561        -1.59414         1.08284
H           7.17521         1.19640         3.16234
H           7.87465        -0.30013         2.57891
H           5.85807        -2.59414         4.52284
H           6.23995        -2.34880         2.88200
H           3.92754        -0.92170         2.80261
H           3.59680        -1.75568         4.28585
H           2.28343        -2.10271         1.63446
H           2.63616        -3.76324         1.20276
H           3.45730        -2.48727        -0.66760
H           4.84410        -3.11413         0.20991

