%chk=CdCOC1dCqCSrNqCdOrC1.chk
%NProcShared=20
# opt freq b3lyp/6-31g(2df,p)

Title Card Required 

0  1
C           1.10339         0.02373        -0.02579
C           2.44162        -0.00124        -0.02953
O           3.16678        -0.99552         0.58687
C           4.45026        -0.93557         0.61107
C           5.47829        -1.84409         0.56142
C           5.44751        -3.37031         0.40276
S           7.04691        -4.18599         0.34022
N           6.43848        -0.86084         0.67366
C           7.79484        -0.82859         0.69490
O           8.47707         0.18925         0.78852
C           5.47543         0.21051         0.74894
H           0.55358         0.77909        -0.58139
H           0.51649        -0.71334         0.51317
H           3.01699         0.72893        -0.58247
H           4.85780        -3.61630        -0.48903
H           4.84339        -3.79591         1.21260
H           7.53932        -3.51997        -0.71619
H           8.27394        -1.80987         0.60724
H           5.54518         0.91556        -0.08434
H           5.49854         0.74974         1.70167

