%chk=CdCqCOrCCC1CdCqCrCO1.chk
%NProcShared=20
# opt freq b3lyp/6-31g(2df,p)

Title Card Required 

0  1
C           0.98212        -0.03963         0.12425
C           2.32681        -0.01382         0.05122
C           3.08651         0.53733        -1.13269
O           2.21984         0.99689        -2.15778
C           3.13699        -0.55132         1.21718
C           4.66590        -0.46542         1.06628
C           5.37773        -1.07086         2.27074
C           5.33642        -2.55611         2.25160
C           6.54383        -3.04355         2.51862
C           6.91822        -4.47510         2.58100
C           7.49046        -1.92058         2.74819
O           6.78815        -0.76456         2.23849
H           0.35669         0.35838        -0.66883
H           0.46160        -0.44009         0.98903
H           3.72767        -0.23588        -1.56817
H           3.71060         1.38094        -0.82387
H           1.68855         0.22946        -2.42625
H           2.84353        -1.59671         1.37974
H           2.85106        -0.00159         2.12486
H           4.97790         0.57856         0.94439
H           4.98505        -0.98953         0.15525
H           4.96817        -0.67187         3.20494
H           4.45853        -3.14656         2.03488
H           6.05752        -5.10890         2.33762
H           7.25811        -4.74261         3.58462
H           7.70928        -4.70048         1.86060
H           8.43231        -2.02688         2.20408
H           7.69397        -1.77134         3.81436

