%chk=CdCqCrCqCrdC1CCCC1CCC.chk
%NProcShared=20
# opt freq b3lyp/6-31g(2df,p)

Title Card Required 

0  1
C           0.98999        -0.08353         0.11174
C           2.32092         0.02137         0.03083
C           3.07926        -1.27493         0.15941
C           3.03974         1.32344        -0.17003
C           2.05480         2.44556        -0.56857
C           4.40036         1.52197        -0.07435
C           5.46854         0.43367         0.04120
C           6.77323         1.04059        -0.44868
C           6.68992         2.47722        -0.01778
C           5.20128         2.86464        -0.14072
C           4.95760         3.92550         0.97364
C           3.51658         4.33304         0.97583
C           2.93723         5.32151         1.93926
H           0.49629        -1.05006         0.20753
H           0.28842         0.74774         0.08953
H           2.40802        -2.13124         0.28505
H           3.72784        -1.26922         1.04001
H           3.64425        -1.48359        -0.75064
H           1.11712         2.11755        -1.01634
H           2.49024         3.09928        -1.32707
H           1.66912         3.01535         0.28228
H           5.29152        -0.42242        -0.60640
H           5.57295         0.10680         1.08106
H           6.85296         0.96715        -1.53920
H           7.64415         0.53287        -0.01788
H           7.33168         3.12184        -0.62834
H           7.04341         2.56209         1.01833
H           5.03835         3.29961        -1.13614
H           5.61011         4.79397         0.83097
H           5.19214         3.48812         1.95224
H           3.04999         3.41896         1.32387
H           3.23261         4.62994        -0.03994
H           2.97495         4.90957         2.95038
H           1.87364         5.44126         1.68441
H           3.42655         6.28998         1.88945

