%chk=CdCqCCCrSCqCrOCNCO.chk
%NProcShared=20
# opt freq b3lyp/6-31g(2df,p)

Title Card Required 

0  1
C           1.08820        -0.07386         0.03368
C           2.43496         0.02500        -0.00948
C           3.11150         1.30412        -0.45400
C           2.19376         2.46714        -0.84612
C           2.98898         3.70597        -1.21578
S           3.32553        -1.40410         0.49033
C           5.12317        -1.05609         0.41368
C           5.51240         0.04080         1.40262
O           5.85639        -2.26465         0.73994
C           7.26610        -2.09338         0.66372
N           7.98255        -3.28729         1.07648
C           9.40081        -3.02587         0.98147
O          10.10080        -4.18361         1.35952
H           0.43958         0.74996        -0.23886
H           0.57658        -0.97527         0.34799
H           3.81111         1.08900        -1.27100
H           3.66939         1.71470         0.38112
H           1.55290         2.72310         0.00786
H           1.55114         2.18193        -1.68442
H           3.61484         4.03623        -0.37969
H           2.30395         4.52004        -1.46888
H           3.63452         3.51142        -2.07661
H           5.36768        -0.78565        -0.61955
H           5.30807        -0.26480         2.43222
H           5.04312         0.99451         1.23031
H           6.57276         0.29039         1.33328
H           7.58142        -1.31417         1.35755
H           7.52962        -1.80425        -0.35965
H           7.73732        -4.04521         0.44517
H           9.70466        -2.21412         1.65378
H           9.70019        -2.75808        -0.03699
H           9.76602        -4.38868         2.24872

