%chk=CdCqCCNNrNdC1CCqOCrCqNrNN1.chk
%NProcShared=20
# opt freq b3lyp/6-31g(2df,p)

Title Card Required 

0  1
C           1.10060        -0.21007        -0.10876
C           2.42860        -0.07885        -0.02763
C           2.99539         1.00665         0.85585
C           2.08258         1.95356         1.61381
N           2.89180         2.91181         2.38126
N           2.00886         3.80500         3.07393
N           3.24627        -0.95568        -0.74189
C           4.54644        -0.97985        -0.71793
C           5.48737        -0.02725        -0.01218
C           6.33354        -0.84999         0.92876
O           7.09344         0.08313         1.70361
C           7.95501        -0.54794         2.62910
C           7.16636        -1.82972         0.07018
N           8.07281        -1.13575        -0.83309
N           6.28598        -2.69110        -0.72878
N           5.30059        -1.91614        -1.43558
H           0.42331         0.44348         0.43668
H           0.62498        -0.97463        -0.71191
H           3.57765         1.66411         0.19801
H           3.59838         0.50850         1.62800
H           1.45920         1.37411         2.30229
H           1.45021         2.49020         0.89941
H           3.54582         3.41159         1.76634
H           1.41959         3.28230         3.72866
H           1.36792         4.27975         2.43307
H           5.12318         0.79563         0.56045
H           6.05278         0.49480        -0.79242
H           5.67457        -1.40843         1.61259
H           8.46449         0.22826         3.20106
H           8.71481        -1.13162         2.10627
H           7.38146        -1.18572         3.30737
H           7.76907        -2.46412         0.72519
H           7.50742        -0.64263        -1.52019
H           8.60180        -1.81998        -1.35863
H           5.80671        -3.32015        -0.07140
H           4.97556        -2.24690        -2.34077

