%chk=CdNCC1CCCC1CCCCOO.chk
%NProcShared=20
# opt freq b3lyp/6-31g(2df,p)

Title Card Required 

0  1
C           0.94921        -0.22132         0.02843
N           2.20823        -0.44238         0.17963
C           2.94141        -0.84828        -1.02609
C           4.45864        -0.60139        -0.82010
C           5.27804        -1.68188        -1.53039
C           6.68887        -1.12046        -1.59829
C           6.53157         0.39259        -1.68170
C           5.03839         0.69422        -1.45124
C           4.87998         1.96969        -0.61021
C           3.42219         2.32631        -0.40647
C           3.17991         3.52780         0.47600
C           1.68070         3.70348         0.68516
O           1.48408         4.83538         1.52328
O           0.04478         4.96888         1.66157
H           0.37553         0.21253         0.86430
H           0.39185        -0.42919        -0.89766
H           2.59225        -0.30495        -1.91418
H           2.74780        -1.91448        -1.17908
H           4.70198        -0.62019         0.25132
H           4.89741        -1.84948        -2.54496
H           5.24740        -2.63511        -0.99367
H           7.24145        -1.52060        -2.45416
H           7.24876        -1.38399        -0.69326
H           6.84716         0.76523        -2.66342
H           7.17672         0.87701        -0.93873
H           4.57615         0.85696        -2.43493
H           5.39513         2.80510        -1.09918
H           5.35838         1.82578         0.36685
H           2.97461         1.52240         0.14945
H           2.90173         2.41432        -1.36734
H           3.62358         4.42976         0.04680
H           3.65765         3.36823         1.45102
H           1.24495         2.81742         1.16592
H           1.17273         3.86023        -0.27402
H           0.07598         5.75700         2.23266

