%chk=CdNCqCCNCrC1CCCCCdCN1.chk
%NProcShared=20
# opt freq b3lyp/6-31g(2df,p)

Title Card Required 

0  1
C           0.99957         0.14533         0.01683
N           2.23719        -0.18459        -0.15869
C           2.92071        -0.86579         0.97150
C           2.60243        -2.36703         0.95642
C           1.12218        -2.60041         1.21983
N           0.75454        -4.00544         1.22658
C          -0.68844        -4.09958         1.41153
C           4.47032        -0.65389         0.87649
C           4.87038         0.61365         1.64819
C           4.18419         1.88346         1.13969
C           4.67372         2.37295        -0.22463
C           6.19496         2.31945        -0.35723
C           6.79824         0.98124        -0.72301
C           6.23049        -0.22519        -0.83905
N           4.96375        -0.67153        -0.51646
H           0.43961         0.62281        -0.79874
H           0.42133        -0.06801         0.93230
H           2.58624        -0.45495         1.93779
H           3.18909        -2.86927         1.73636
H           2.89000        -2.79436        -0.00945
H           0.54376        -2.14617         0.41456
H           0.83986        -2.12314         2.16902
H           1.24709        -4.49485         1.97034
H          -1.22459        -3.54849         0.62815
H          -0.98790        -3.69335         2.38359
H          -0.99871        -5.14312         1.35233
H           4.97328        -1.48996         1.37918
H           5.96025         0.72961         1.66465
H           4.61996         0.47212         2.70619
H           4.33145         2.67602         1.88062
H           3.10041         1.75076         1.09412
H           4.33208         3.40816        -0.34813
H           4.19950         1.81773        -1.04191
H           6.64980         2.67735         0.57688
H           6.49864         3.03511        -1.12962
H           7.87941         1.02114        -0.86179
H           6.85489        -1.07528        -1.11386
H           4.22870        -0.36873        -1.16357

