%chk=COc1cccccccccqdOrc1.chk
%NProcShared=20
# opt freq b3lyp/6-31g(2df,p)

Title Card Required 

0  1
C           1.46023        -0.21241         0.19966
O           3.29183        -0.65947         1.01739
C           4.74963        -1.37687         2.30254
C           4.86213        -0.65165         0.99269
C           5.64105        -1.13925         1.88458
C           6.99074        -1.14601         1.89419
C           7.83551        -1.66815         2.83888
C           9.03568        -1.48614         2.51045
C           8.35760        -1.98897         3.41956
C          10.33603        -2.17068         3.75279
C          10.77980        -2.79677         4.88891
C           8.77847        -2.62305         4.59018
O           9.99393        -3.08270         5.40834
C           6.38524        -2.10587         3.61432
H           0.81212         0.40149        -0.91350
H           0.74076         0.44001         0.85139
H           0.74096        -1.11187        -0.00367
H           5.21783        -0.18081         0.14279
H           5.47202        -1.78120         3.06864
H           7.39914        -0.72486         1.12961
H           7.36087        -2.46913         4.29058
H           9.84560        -1.27443         2.12691
H           7.79579        -2.91932         5.10827
H          11.53160        -1.99219         3.42897
H          11.22343        -3.54033         6.23799
H           4.60207        -2.09360         3.61045

