%chk=COC1dC2CdCCdCdCdCCdCNdC2CdC1.chk
%NProcShared=20
# opt freq b3lyp/6-31g(2df,p)

Title Card Required 

0  1
C           1.12272         0.45198         0.34171
O           2.51741         0.46363         0.15281
C           3.05227        -0.63829        -0.47434
C           2.47695        -1.55485        -1.33838
C           2.00326        -1.84110        -2.63735
C           1.21720        -0.85603        -3.05631
C          -0.02529        -1.13094        -3.69017
C          -0.83176        -0.13327        -4.00746
C          -1.58449         0.72740        -4.09164
C          -2.50293         1.43879        -3.48809
C          -2.68618         0.56474        -2.07759
C          -1.48021         0.05291        -1.18028
N          -0.21548        -1.24565        -0.99218
C           1.15986        -1.96882        -0.50389
C           2.78544        -2.44759         0.45192
C           3.59594        -1.37946         0.62030
H           0.67295         1.42535         0.37050
H           0.69957        -0.32349         1.02578
H           0.76959         0.30766        -0.63880
H           1.73001        -2.90557        -2.77982
H           1.29177         0.03025        -2.41486
H          -0.38725        -2.13780        -3.77669
H          -2.75804         2.42344        -4.00100
H          -3.57585         1.25116        -1.70623
H          -1.29308         1.18827        -1.17306
H           3.77574        -3.19756         0.21529
H           4.61249        -1.19765         1.07065

