%chk=CON1CdNCdC2CdCCqdNrCdC2CC1.chk
%NProcShared=20
# opt freq b3lyp/6-31g(2df,p)

Title Card Required 

0  1
C           0.93602        -0.00863        -0.00765
O           2.35272         0.03402        -0.08427
N           2.83053         0.88477        -1.10517
C           4.22019         0.87283        -1.16067
N           5.17876         1.66317        -1.42374
C           4.98937         2.92784        -1.92984
C           4.02525         3.81132        -1.79292
C           3.97741         5.10914        -2.49137
C           5.07921         5.74406        -2.11978
C           4.59311         6.18116        -0.77829
N           4.79390         7.46206        -0.65815
C           3.55065         5.01597         0.04682
C           3.18274         3.83723        -0.62152
C           1.89677         3.24535        -1.35958
C           1.94742         1.75436        -1.85357
H           0.64841        -0.66219         0.81899
H           0.51936        -0.43357        -0.92583
H           0.53129         0.98601         0.20527
H           4.56865        -0.16244        -0.97991
H           5.85338         3.24692        -2.50179
H           3.03819         5.67470        -2.19171
H           6.08537         5.34733        -2.21026
H           5.36399         7.78498        -1.49300
H           3.77283         4.90653         1.12106
H           1.76409         3.77199        -2.32913
H           0.94596         3.43420        -0.85758
H           2.22931         1.67118        -2.91704
H           0.91670         1.37824        -1.89568

