%chk=CON[PH]q[PH]qdOrCOrd[SH]qdOrS.chk
%NProcShared=20
# opt freq b3lyp/6-31g(2df,p)

Title Card Required 

0  1
C           0.99585         0.04126        -0.01516
O           2.42263         0.02066         0.03532
N           2.92416        -0.00072        -1.33906
P           4.70416        -0.00072        -1.33906
P           4.70416         1.78340        -0.15731
O           3.93727         2.48662        -1.29809
C           4.70416         3.30907         0.85325
O           6.03401         3.81717         0.93986
S           6.60156        -0.00072        -1.33906
O           7.11666         1.26817        -1.79883
S           7.36132        -0.26930         0.59511
H           0.61760         0.10380         1.00836
H           0.61969        -0.87425        -0.48048
H           0.64473         0.92056        -0.56677
H           2.67665         0.94901        -1.66640
H           4.70416        -1.15122        -2.10112
H           6.10106         1.82813        -0.09739
H           4.35127         3.07412         1.86143
H           4.06728         4.09580         0.43869
H           6.59525         3.17786         1.41737
H           7.07158        -0.97730        -2.13600
H           7.16363         0.94155         1.13270

