%chk=CtCC1CqCqNrCNOrdCCdCNdC1CqNrCdC.chk
%NProcShared=20
# opt freq b3lyp/6-31g(2df,p)

Title Card Required 

0  1
C           1.08462        -0.01344        -0.05156
C           2.38848        -0.01344        -0.05156
C           3.90848        -0.01344        -0.05156
C           4.33052         1.33097        -0.58850
C           3.78552         2.52931         0.20631
N           4.25288         2.49964         1.60092
C           4.15638         3.89376        -0.42228
N           3.58260         5.03105         0.29446
O           4.20982         6.18721        -0.32346
C           5.08084         1.52502        -1.68550
C           5.67308         0.57735        -2.55986
C           5.62598        -0.75549        -2.52040
N           5.02080        -1.62663        -1.68866
C           4.28869        -1.36313        -0.64471
C           3.75884        -2.58440         0.19917
N           2.28894        -2.69232         0.25792
C           4.22032        -3.89321        -0.33952
C           3.82242        -5.06134         0.17509
H           0.01803        -0.00607        -0.05585
H           4.27198        -0.07655         0.98192
H           2.68838         2.48816         0.21676
H           5.26925         2.46710         1.61660
H           3.90250         1.67221         2.07575
H           3.78762         3.92967        -1.45534
H           5.25066         3.99530        -0.43473
H           3.97657         5.01162         1.24334
H           3.71419         6.25592        -1.16380
H           5.31996         2.53096        -2.02362
H           6.24739         1.02782        -3.36977
H           6.18892        -1.25696        -3.30678
H           4.13580        -2.43646         1.21973
H           1.90514        -2.48395        -0.66434
H           1.90477        -2.01093         0.90730
H           4.83257        -3.89082        -1.23543
H           3.15993        -5.07647         1.03668
H           4.11067        -5.98775        -0.29527

