%chk=OCCCOC1CCC1Cn1cccc1.chk
%NProcShared=20
# opt freq b3lyp/6-31g(2df,p)

Title Card Required 

0  1
O           0.84415         0.01747         0.07398
C           2.25785         0.00504         0.06621
C           2.75618        -1.15749        -0.77471
C           4.26167        -1.13091        -0.72889
O           4.84537        -2.18163        -1.47414
C           6.29165        -2.20517        -1.48756
C           7.05912        -1.18204        -0.60431
C           8.04776        -2.29242        -0.25052
C           6.95557        -3.32295        -0.63555
C           7.44431        -4.54708        -1.39021
N           6.37065        -5.49023        -1.67973
C           5.27027        -5.23495        -2.45323
C           4.46574        -6.35527        -2.43637
C           5.12468        -7.32874        -1.65186
C           6.29589        -6.76990        -1.19464
H           0.57476         0.76968         0.62749
H           2.61718        -0.08396         1.09858
H           2.62015         0.95664        -0.33992
H           2.39180        -1.09081        -1.80576
H           2.37860        -2.11141        -0.38769
H           4.56255        -1.24104         0.31750
H           4.63147        -0.17905        -1.12706
H           6.64385        -2.19591        -2.52815
H           6.54592        -0.81840         0.29156
H           7.44728        -0.31402        -1.14194
H           8.34165        -2.30538         0.80314
H           8.94183        -2.28952        -0.87970
H           6.34356        -3.60721         0.23357
H           8.19205        -5.07949        -0.78998
H           7.91455        -4.28755        -2.34596
H           5.11530        -4.27767        -2.92902
H           3.51079        -6.44612        -2.93294
H           4.77283        -8.32953        -1.43435
H           7.07123        -7.17646        -0.55754

