%chk=OdC1CdCN2CdCCdCC2dCNdCCdCS1.chk
%NProcShared=20
# opt freq b3lyp/6-31g(2df,p)

Title Card Required 

0  1
O           0.98819         0.80977         0.29314
C           1.94560         0.12097        -0.04744
C           2.96024        -0.27370         0.98142
C           4.29202        -0.46741         1.02189
N           5.01036        -1.17265         2.03418
C           6.19014        -0.62405         2.56708
C           6.95695        -1.20822         3.50627
C           6.57181        -2.50083         4.02032
C           5.45840        -3.09588         3.56644
C           4.61692        -2.49129         2.50328
C           3.61056        -3.26242         2.03067
N           2.82754        -2.88586         0.96294
C           1.70139        -3.42699         0.74088
C           0.63627        -2.68899        -0.05819
C           0.73786        -2.08122        -1.25373
S           1.88416        -0.77675        -1.58694
H           2.42336        -0.56194         1.88265
H           4.95192        -0.14116         0.22413
H           6.44687         0.35871         2.18659
H           7.85008        -0.73554         3.89987
H           7.20741        -2.97688         4.76329
H           5.19435        -4.07867         3.94949
H           3.37568        -4.21418         2.50402
H           1.31256        -4.30491         1.29497
H           0.72541        -1.85318         0.64939
H          -0.11350        -2.23115        -1.93471

