%chk=OdC1CdC2CdC1C1CCCC1C2.chk
%NProcShared=20
# opt freq b3lyp/6-31g(2df,p)

Title Card Required 

0  1
O           2.88484         0.01268        -1.25176
C           3.44486         1.02450        -0.99408
C           2.85020         1.75909         0.16137
C           4.11749         1.65036         0.60700
C           4.79115         2.59254        -0.31962
C           5.15874         1.64570        -1.20158
C           6.61038         1.24615        -0.17594
C           8.24290         1.22676        -0.27148
C           8.82285        -0.12977         0.00831
C           7.62367        -0.98378         0.18438
C           6.30768        -0.19487        -0.10145
C           4.87533         0.01083         0.56241
H           2.28235         2.62429        -0.21907
H           4.26864         3.49682        -0.66297
H           6.86879         2.22600        -0.62018
H           8.67996         1.90396         0.48787
H           8.61689         1.56825        -1.24389
H           9.44271        -0.16234         0.91780
H           9.46222        -0.49279        -0.80476
H           7.67004        -1.38130         1.21389
H           7.68627        -1.83727        -0.50783
H           6.05852        -1.07442         0.50080
H           4.64605        -0.48406         1.50249
H           4.41529        -0.67180        -0.19654

