%chk=OdCqOrC1CqdOrCCCdC1CO.chk
%NProcShared=20
# opt freq b3lyp/6-31g(2df,p)

Title Card Required 

0  1
O           1.01735        -0.00122        -0.00341
C           2.24261        -0.03452         0.02716
O           2.91713        -1.13575         0.43639
C           3.14523         1.12469        -0.37770
C           3.23214         2.07008         0.79736
O           3.52090         1.62366         1.91511
C           3.02146         3.54827         0.63118
C           2.72607         4.07301        -0.76003
C           2.59701         3.07026        -1.84880
C           2.74149         1.74276        -1.69962
C           2.61651         0.76032        -2.84359
O           2.35536         1.41697        -4.07320
H           3.88085        -1.01021         0.54608
H           4.16601         0.75142        -0.53438
H           3.93129         4.03302         1.00382
H           2.19590         3.82756         1.29539
H           3.50648         4.79033        -1.04278
H           1.79174         4.64644        -0.72358
H           2.39093         3.49880        -2.82944
H           1.80762         0.04545        -2.66517
H           3.55298         0.20505        -2.95557
H           1.50720         1.88082        -3.96387

