%chk=OdCqCdCCCOOrC1CCC1dO.chk
%NProcShared=20
# opt freq b3lyp/6-31g(2df,p)

Title Card Required 

0  1
O           1.01725        -0.01105        -0.14417
C           2.24948        -0.03566        -0.13635
C           2.96420        -1.07556        -0.93922
C           2.33036        -1.95267        -1.72047
C           3.10244        -2.93967        -2.54545
C           2.15718        -3.84374        -3.31436
O           2.91686        -4.76223        -4.09252
O           1.92595        -5.57423        -4.78064
C           3.14832         0.89158         0.71000
C           4.66530         1.01368         0.36133
C           4.45148         2.39032        -0.28445
C           3.03171         2.37919         0.29831
O           2.21565         3.25938         0.45048
H           4.04004        -1.13931        -0.90188
H           1.24377        -1.94652        -1.76712
H           3.76073        -3.54608        -1.90899
H           3.75993        -2.41233        -3.25047
H           1.52377        -3.24526        -3.97934
H           1.52115        -4.40013        -2.61667
H           2.56232        -6.13593        -5.25665
H           2.93653         0.77459         1.78142
H           5.08944         0.32830        -0.37288
H           5.31903         0.96121         1.23631
H           4.44913         2.38023        -1.37876
H           5.11698         3.16982         0.08578

