%chk=SdC1CdCCdCNdCNdNNdCCdC1CS.chk
%NProcShared=20
# opt freq b3lyp/6-31g(2df,p)

Title Card Required 

0  1
S           2.39081        -0.24258         0.17843
C           4.74704        -0.66249         0.63204
C           3.44299        -1.02851         1.09481
C           4.81626        -1.04628         1.12001
C           5.50778        -1.85586         2.06966
C           6.92174        -2.14880         2.40902
N           7.21899        -3.01555         3.27447
C           7.80362        -2.10806         2.78431
N           9.06617        -3.20460         3.72779
N          10.72094        -2.53985         2.93790
N          10.82591        -3.99375         4.59174
C          11.13379        -3.08342         3.43020
C           9.01602        -2.19611         2.27926
C           7.15083        -1.16654         1.15235
C           5.25916         0.17422        -0.32624
S           4.30009         1.80541        -2.22396
H           2.88390        -1.54293         1.69967
H           6.05241        -0.47294         0.44864
H           4.96991        -2.37032         2.66931
H           8.26086        -1.35284         1.49082
H           9.34434        -1.37283         1.60235
H          12.92094        -3.48227         3.97099
H          10.21801        -3.26174         3.60604
H           3.73464         1.14351        -0.80845
H           3.73437         0.50412        -1.35421
H           4.63678         3.33502        -2.33836

