%chk=[C]1dCCdCCdCCdNCdCCdCSCdC1.chk
%NProcShared=20
# opt freq b3lyp/6-31g(2df,p)

Title Card Required 

0  2
C           4.79301         0.77628         0.32040
C           3.05564         0.36946         0.11244
C           3.29188         1.56807         0.72516
C           4.86389         2.16672         1.03119
C           5.54988         3.07749         1.49677
C           6.96761         3.05077         1.48311
C           7.01698         4.07844         2.00845
N           8.13290         4.12020         2.02980
C           8.69668         4.97075         2.46460
C           9.85486         4.86463         2.41035
C          11.39820         5.96735         2.97406
C          12.80416         5.72784         2.85162
S          11.33473         4.24667         2.09445
C           8.92271         2.74369         1.32614
C           6.99317         1.67472         0.77968
H           3.01454        -0.75084        -0.46026
H           2.54053         2.15318         1.02427
H           6.00148         0.62477         0.24295
H           4.62440         3.42889         1.67641
H           8.16844         1.83684         0.86255
H           6.61921         4.74676         2.35010
H           8.82268         5.74953         2.86271
H          10.80587         3.22059         1.56992
H          10.98838         6.82414         3.41205
H          13.49069         4.84957         2.40265
H          10.01142         3.75038         1.84075
H           5.28723         1.18860         0.53118

