%chk=[C]NdCC1dCqSSrNCqCdNrdCdCCdC1.chk
%NProcShared=20
# opt freq b3lyp/6-31g(2df,p)

Title Card Required 

0  2
C           1.84368         0.06431         0.00298
N           3.31392         0.30067         0.14538
C           4.01044        -0.78439         0.36947
C           5.53854        -1.45476         0.47522
C           5.41263        -2.73537         0.03486
S           4.04301        -3.86408         0.20250
S           2.05102        -3.57151         0.34892
N           6.58745        -3.24017        -0.54563
C           7.47051        -4.23981        -0.12173
C           7.04593        -5.47379         0.56901
N           5.84054        -5.75627         0.89316
C           8.65863        -3.82455        -0.07805
C           9.33213        -2.69866         0.12478
C           8.49774        -1.67458         0.97999
C           7.17104        -1.05745         0.92106
H           3.28784        -1.58510         0.34021
H           1.71985        -4.86474         0.55252
H           7.17516        -2.43352        -0.80709
H           7.81324        -6.20957         0.80646
H           5.31771        -4.92419         0.58589
H          10.42375        -2.73127        -0.01911
H           8.78220        -2.23174         1.91784
H           7.26549        -0.09407         0.41290

