%chk=[C]SC1dCCdCCdC2CdCCdCCdC21.chk
%NProcShared=20
# opt freq b3lyp/6-31g(2df,p)

Title Card Required 

0  2
C           1.06187        -0.01038         0.07021
S           2.85076        -0.27149        -0.05016
C           3.36341        -0.39532         1.67925
C           3.57138         0.88425         2.22014
C           4.08964         1.33425         3.50968
C           4.46840         0.55796         4.52125
C           4.36747        -0.82814         4.63613
C           3.88692        -1.78866         3.84936
C           3.29786        -2.94991         4.50688
C           3.99997        -3.68882         5.42149
C           4.13641        -5.05083         4.60449
C           4.76193        -4.71183         3.53152
C           4.17018        -3.31318         2.29544
C           3.90945        -1.88155         2.45139
H           3.39493         1.83252         1.64933
H           4.18769         2.40476         3.72532
H           4.77088         0.97380         5.47951
H           4.64715        -1.19061         5.59656
H           2.79001        -3.69323         3.81996
H           4.85281        -3.18827         5.99478
H           3.84403        -6.15043         4.40628
H           5.33400        -4.85239         4.64717
H           3.46773        -3.64579         1.52559

