%chk=[CH]CCCqdCdSrCdCCd[SH]O.chk
%NProcShared=20
# opt freq b3lyp/6-31g(2df,p)

Title Card Required 

0  1
C           1.15949         0.03352         0.14249
C           2.60477        -0.04675        -0.04089
C           3.14689        -0.62207        -1.36127
C           4.68069        -0.62389        -1.35625
C           5.36466        -0.17215        -0.32468
S           6.14464         0.38345         0.94503
C           5.39618        -1.13569        -2.52920
C           6.73814        -1.16864        -2.61294
C           7.45699        -1.66007        -3.79464
S           9.25789        -1.53766        -3.77334
O           9.42428        -2.37135        -5.13637
H           0.23416         0.24379         0.62645
H           2.98534        -0.65173         0.79038
H           2.98583         0.97377         0.08268
H           2.78036        -0.02916        -2.21052
H           2.77755        -1.64630        -1.50736
H           4.78855        -1.49255        -3.35933
H           7.37447        -0.81656        -1.80621
H           6.89126        -2.06123        -4.64755
H           9.53899        -2.46769        -2.88202
H           9.37771        -1.77148        -5.91981

