%chk=[N]c1sccccc2cccccc1-2.chk
%NProcShared=20
# opt freq b3lyp/6-31g(2df,p)

Title Card Required 

0  1
N           4.74431        -0.87370        -1.12162
C           6.95367        -1.29735        -1.64131
S           4.47987        -1.23281        -1.56213
C           6.30258        -1.01201        -1.29129
C           5.63505        -2.05996        -2.57678
C           7.17929        -2.24973        -2.80956
C           7.88723        -2.81344        -3.50105
C           8.98788        -2.71229        -3.37697
C           9.28380        -3.35323        -4.16319
C          10.83681        -2.29762        -2.86830
C          11.06610        -3.48846        -4.32907
C          12.53659        -3.55773        -4.41404
C          10.74704        -3.18008        -3.95079
C           8.96098        -2.05045        -2.56512
H           5.73341        -0.15101        -0.23514
H           4.84837        -2.46326        -3.07150
H           8.20920        -1.26662        -1.60361
H           7.19004        -3.15601        -3.92127
H           9.39710        -3.98068        -4.93286
H          12.07119        -2.50555        -3.12337
H          11.44545        -4.51997        -5.59439
H          13.98159        -3.44827        -4.27977
H          12.25313        -3.88340        -4.81353

