%chk=[N]NSN1CdCCdCCdCCdCCdCC1dO.chk
%NProcShared=20
# opt freq b3lyp/6-31g(2df,p)

Title Card Required 

0  1
N           0.99779         0.05640        -0.12055
N           2.79971         0.14643        -0.20676
S           4.63015         1.30785        -1.14560
N           7.17232         1.74332        -1.48240
C           5.58560         2.35855        -1.96978
C           6.78617         2.66851        -2.21626
C           7.46331         3.50127        -2.88127
C           8.67948         3.73204        -3.06472
C           8.98623         4.61198        -3.76721
C          10.11777         4.37453        -3.57855
C          11.30320         5.34836        -4.35183
C          11.98989         4.09485        -3.34645
C          12.36359         5.16307        -4.21291
C          11.40843         3.76095        -3.10631
C           9.38822         2.49482        -2.07558
O           8.65829         1.36530        -1.17918
H           2.73873        -0.90377        -0.43002
H           4.91511         3.04426        -2.51642
H           7.89478         2.57982        -2.14289
H           6.91004         4.10158        -3.36005
H           9.92792         3.33814        -2.74799
H           9.01795         5.29881        -4.31490
H          10.89338         2.97275        -2.46088
H          11.16023         6.20253        -5.03688
H          13.61062         4.03211        -3.30309
H          13.04234         6.37122        -5.16840
H          12.88349         4.78175        -3.89799

