%chk=[NH][S]1CdCCdCc2nccn2CdCCdCC1dN.chk
%NProcShared=20
# opt freq b3lyp/6-31g(2df,p)

Title Card Required 

0  1
N           1.97053         0.41708        -0.15804
S           3.76125         0.21998         0.06621
C           3.60306         0.88847         1.63627
C           4.84862         0.92931         2.04608
C           5.23528         1.50617         3.25073
C           6.53203         1.48502         3.51877
C           7.01699         2.19182         4.62097
N           6.53039         2.08513         5.83162
C           7.38363         2.76144         6.62098
C           8.37348         3.36949         5.87638
N           8.12812         3.06047         4.53472
C           8.81228         3.52412         3.32593
C           8.28513         3.19592         2.11005
C           8.13364         3.08651         0.63582
C           7.03133         2.50112        -0.24914
C           5.32399         1.69353        -0.74459
N           4.76912         1.50254        -1.86071
H           1.38135        -0.20873         0.50964
H           2.71386         1.14849         2.21031
H           5.60967         0.52854         1.36988
H           4.47818         1.96945         3.85809
H           7.20902         1.01142         2.80227
H           7.22166         2.75835         7.69006
H           9.18446         3.99283         6.21879
H           9.70007         4.12572         3.57598
H           7.41177         2.64836         2.17027
H           9.13349         3.55682         0.35304
H           7.61613         2.64671        -1.21072
H           4.40925         1.39553        -2.78353

