%chk=[SH]tCC1dCCdCCdCCdCCdCCdCSCdC1.chk
%NProcShared=20
# opt freq b3lyp/6-31g(2df,p)

Title Card Required 

0  1
S           1.05188         0.03796         0.07660
C           2.60450         0.03796         0.07660
C           4.12450         0.03796         0.07660
C           4.71859         1.15449         0.50878
C           5.83130         1.29267         0.56227
C           6.62451         2.49612         1.02813
C           8.11962         2.59906         1.06798
C           8.89167         3.47957         1.40882
C          10.21577         3.73064         1.50600
C          11.07698         4.56588         1.82933
C          12.11623         5.04831         2.01607
C          12.67436         6.67131         2.64432
C          14.28294         5.67536         2.25879
C          15.04941         6.04606         2.40230
S          12.82601         3.94260         1.58807
C           9.86121         2.29678         0.95098
C           7.21395         1.13500         0.50126
H           0.60465         1.31474        -0.01866
H           4.27292         1.98731         0.83122
H           6.33791         0.42854         0.22781
H           6.41797         3.19922         1.30032
H           8.71213         1.04694         0.46718
H           8.65870         4.23198         1.70008
H          11.18570         2.19597         0.91195
H          10.83206         5.34603         2.13132
H          12.91279         2.96539         1.20979
H          13.26015         6.12780         2.43394
H          15.57220         4.54403         1.82087
H          15.25209         7.50173         2.96577
H          11.73301         3.34875         1.35819
H           7.45528        -0.05965         0.03883

