%chk=[SH]tCC1CdCCdCCdNCdCNCdC1.chk
%NProcShared=20
# opt freq b3lyp/6-31g(2df,p)

Title Card Required 

0  1
S           1.03036         0.07092        -0.06363
C           2.58298         0.07092        -0.06363
C           4.10298         0.07092        -0.06363
C           4.25999        -1.37501        -0.48436
C           5.43000        -1.50805        -1.27200
C           6.09427        -3.14624        -1.05811
C           7.44446        -3.35448        -1.34898
C           7.85967        -4.84367        -1.11075
N           8.99180        -5.14795        -1.65737
C           9.63478        -6.28502        -1.28893
C          10.46464        -5.48878        -0.55440
N           9.10989        -4.43407         0.44326
C           7.53015        -2.91423         0.68093
C           5.96596        -1.52554         0.54849
H           0.61320        -1.14047        -0.47451
H           4.51678         0.64455        -0.90142
H           3.75972        -2.27636        -0.21730
H           6.38931        -0.52222        -0.77027
H           5.58815        -3.95660        -0.39480
H           8.38368        -2.43366        -0.84812
H           7.39360        -5.62309        -0.44155
H           9.23679        -7.20431        -0.75686
H          11.89128        -5.60018        -0.67990
H           9.85665        -5.79793         0.47444
H           8.98448        -3.62293         0.45679
H           6.35180        -0.83553         1.25563

