%chk=C1dCdc2ccccc2dCCdCCdCCdCCd1.chk
%NProcShared=20
# opt freq b3lyp/6-31g(2df,p)

Title Card Required 

0  1
C           0.43151        -0.67033        -0.14162
C           1.62823        -0.19071        -0.08883
C           3.07406        -0.01239        -0.07790
C           3.96849         1.28824        -0.09533
C           5.33423         1.29381        -0.29604
C           6.16448         0.10907        -0.37380
C           5.58552        -1.06923        -0.17523
C           4.10672        -1.23859        -0.12365
C           3.82184        -2.52262        -0.20043
C           2.48173        -3.00237        -0.26139
C           1.92388        -4.14550        -0.36197
C           0.49141        -4.05484        -0.29158
C          -0.59662        -4.78735        -0.21415
C          -1.83139        -3.91412         0.24512
C          -1.79906        -2.68506        -0.31646
C          -0.87788        -1.25435        -0.27339
H           3.55336         2.25994         0.14612
H           5.96275         2.19272        -0.30995
H           7.25622         0.16917        -0.48448
H           6.22519        -1.95348        -0.10313
H           4.53807        -3.32649        -0.27135
H           1.84043        -2.16360        -0.21056
H           2.45771        -5.08421        -0.39162
H           0.27578        -3.01464        -0.21728
H          -0.41267        -5.85954        -0.38523
H          -3.01203        -3.97900         0.08694
H          -2.04638        -3.35667        -1.25572
H          -1.68552        -0.53237        -0.11515

