%chk=C1dCCdCCdc2ccccssc2dNNdCCdC1.chk
%NProcShared=20
# opt freq b3lyp/6-31g(2df,p)

Title Card Required 

0  1
C           1.81872         0.74270         0.13904
C           2.73510        -0.14893         0.02644
C           3.26099        -1.41898        -0.13396
C           4.62722        -1.40333        -0.13198
C           5.67916        -2.42477        -0.26098
C           7.12016        -2.65585        -0.29016
C           6.99146        -4.06713        -0.46839
C           8.13703        -4.52358        -0.52604
C           9.18583        -5.29735        -0.62376
C          10.47585        -4.08413        -0.47054
S          11.61276        -5.78407        -0.68523
S          10.58509        -3.73566        -0.42653
C           8.99877        -1.98621        -0.20559
N           7.85783        -0.92926        -0.07211
N           7.50820         0.83829         0.15111
C           6.29324         1.72132         0.26263
C           4.49588         2.45448         0.35522
C           2.87295         2.17296         0.31967
H           0.86331         0.08823         0.05639
H           3.55791         0.45848         0.10315
H           2.57083        -2.23524        -0.23704
H           5.06124        -0.45456        -0.01216
H           4.97165        -3.29908        -0.37140
H           6.31473        -4.84890        -0.56712
H           8.63577        -3.66876        -0.41808
H           8.97719        -6.34929        -0.75661
H          11.40872        -2.60164        -0.28332
H           5.71540         0.89057         0.15772
H           5.13976         3.46103         0.48234
H           1.85291         2.68783         0.38469

