%chk=C1dCSSS2dCqSCdC2rSSCdCSN1.chk
%NProcShared=20
# opt freq b3lyp/6-31g(2df,p)

Title Card Required 

0  1
C           2.38012        -0.25300        -1.02522
C           2.89024        -0.14232         0.18183
S           3.41182        -1.61935         1.02382
S           5.41023        -1.14313         0.88920
S           6.81457        -2.51071         1.28901
C           6.50999        -3.73174         0.08191
S           6.24541        -5.40569         0.63412
C           5.94808        -4.81373         2.23806
C           6.01699        -3.44783         2.47197
S           6.89309        -3.58249        -1.66006
S           7.42821        -1.62135        -1.86965
C           6.47662        -1.21430        -3.27083
C           5.70460        -0.10099        -3.34595
S           4.64319         0.68512        -2.16677
N           2.93448         0.25523        -2.24017
H           1.35695        -0.68005        -1.10477
H           3.60621         0.67808         0.31605
H           5.69582        -5.49704         3.03581
H           5.71943        -3.03722         3.42745
H           7.09808        -1.46876        -4.14162
H           6.35516         0.66288        -3.80997
H           2.33998         1.06200        -2.47617

