%chk=C1dCCdCCdc2cccccc[nH]c2dCCdCCdC1.chk
%NProcShared=20
# opt freq b3lyp/6-31g(2df,p)

Title Card Required 

0  1
C           1.64217        -0.29665         0.57872
C           2.58232         0.10196        -0.22570
C           3.23310         0.65181        -1.33535
C           4.61083         0.66310        -1.35821
C           5.86908         1.19828        -2.43791
C           7.61278         1.30700        -2.65803
C           7.55225         1.89368        -3.84158
C           8.79084         2.02340        -4.10339
C           9.04375         2.57502        -5.21641
C          10.14675         2.27584        -4.60621
C          10.97931         2.80122        -5.65694
C          12.51781         2.56602        -5.22550
N          11.51646         1.86739        -3.81344
C           9.67728         1.20655        -2.46229
C           8.45769         0.60195        -1.23433
C           7.66753        -0.20898         0.40180
C           6.57461        -0.80684         1.60805
C           4.72802        -1.12744         2.25536
C           2.97553        -0.93704         1.87109
H           0.82705         0.22504        -0.47410
H           3.28999        -0.20940         0.40264
H           2.62695         1.03483        -2.10832
H           4.95131         0.21052        -0.44479
H           4.93851         1.58499        -3.21855
H           6.75500         2.18680        -4.43312
H          10.03806         1.73746        -3.52624
H           8.75407         2.99652        -6.06738
H          10.89093         1.45423        -2.93630
H          11.04760         3.27153        -6.61960
H          13.62795         2.37260        -4.78870
H          12.13261         2.48135        -5.03204
H           7.02644         0.44225        -0.91160
H           8.59566        -0.44719         0.88249
H           5.55030        -0.72750         1.44830
H           5.86701        -1.53010         3.06796
H           1.54334        -0.97355         1.94478

