%chk=CC1dCCdC2CdCCdNCdCCdCCdC2S1.chk
%NProcShared=20
# opt freq b3lyp/6-31g(2df,p)

Title Card Required 

0  1
C           1.24031        -0.10040        -0.04529
C           2.94129        -0.29283        -0.04816
C           3.51356         0.92792        -0.04573
C           4.95563         0.71391        -0.05756
C           5.90496        -0.42634        -0.06291
C           7.05794         0.30219        -0.07711
C           8.00512        -0.52553        -0.08561
C           9.33225        -0.52639        -0.09831
N           9.77188        -1.65174        -0.13477
C          10.98466        -2.02315        -0.17720
C          10.45707        -3.35889        -0.26013
C          11.69401        -3.80509        -0.05150
C           9.88739        -3.80149         0.06929
C           7.93188        -3.30356        -0.05633
C           6.37583        -2.24130        -0.06579
S           4.15959        -2.13355        -0.05823
H           0.81966         0.97340        -0.04500
H           0.76470        -0.51091         0.85163
H           0.76380        -0.51074        -0.94155
H           2.92642         1.96551        -0.03918
H           5.28189         1.81918        -0.06213
H           7.37083         1.28333        -0.08043
H           7.91708        -1.51939        -0.09091
H           9.89221         0.29422        -0.09937
H          11.83414        -1.34301        -0.08627
H          10.34143        -5.12303        -0.27463
H          12.83024        -3.15348        -0.13945
H          11.40720        -4.61728        -0.00532
H           7.08040        -4.01260        -0.07721

