%chk=CC1dCCdc2cc[nH]c2dCCdCNNdCCdCCdC1.chk
%NProcShared=20
# opt freq b3lyp/6-31g(2df,p)

Title Card Required 

0  1
C           0.77113         0.66115         0.19179
C           1.46317        -0.62597         0.49493
C           2.65077        -0.13008        -0.29721
C           4.32128         0.21228        -0.69990
C           5.03409         1.01671        -1.69260
C           6.59433         1.13603        -1.82875
C           6.93759         1.94647        -2.86546
N           5.83251         2.46426        -3.46208
C           4.66397         1.99284        -2.88232
C           3.47444         2.37710        -3.38182
C           2.35058         1.69303        -2.94133
C           1.05436         2.08279        -2.97330
N           0.00452         1.44259        -2.47137
N          -1.24626         1.96419        -2.26494
C          -1.89149         1.05153        -1.70020
C          -3.25976         0.79339        -1.31668
C          -3.15333        -0.19880        -0.37878
C          -1.76316        -0.43769         0.58042
C          -0.36538        -1.05282         0.58195
H           1.43886         1.51354         0.24360
H           0.04768         0.99623         0.91640
H           0.46656         0.27693        -0.79403
H           2.36800         0.61277        -0.99520
H           5.00836        -0.23178         0.02653
H           7.35535         0.65534        -1.23652
H           7.91012         2.23826        -3.27353
H           5.85234         3.06156        -4.28587
H           3.35968         3.09555        -4.18326
H           2.67693         0.74866        -2.58185
H           0.74023         2.95757        -3.47664
H           0.07380         0.41665        -2.54383
H          -1.32470         0.14992        -1.45455
H          -4.04163         1.26222        -1.92156
H          -4.12204        -0.58156        -0.00895
H          -2.01615         0.49352         1.14739
H          -0.19860        -1.13841         1.69971

