%chk=CC1d[C]CqdOrC2dCdCdCCdCCqdC1r[N]C2dO.chk
%NProcShared=20
# opt freq b3lyp/6-31g(2df,p)

Title Card Required 

0  1
C           1.10193        -0.09061         0.04915
C           2.58484        -0.17691         0.14406
C           3.48956        -1.14216         0.16268
C           4.96273        -1.36311        -0.13093
O           5.72679        -1.29529         0.83222
C           5.66498        -1.40951        -1.49723
C           5.68938        -2.60214        -1.96797
C           5.06342        -3.46237        -2.53729
C           4.01796        -3.44761        -3.25971
C           3.30320        -1.95803        -3.34146
C           3.28087        -0.61909        -2.74833
C           3.88911         0.55335        -1.61461
C           3.21262         0.96181        -0.48507
N           5.18812         0.89016        -1.85082
C           5.69238        -0.16352        -2.47807
O           5.86519        -0.19317        -3.69621
H           0.66225        -1.08130        -0.00515
H           0.77140         0.47493        -0.84131
H           0.69847         0.45211         0.91393
H           4.01360        -4.37200        -3.90328
H           2.67820        -2.17738        -4.22217
H           3.06712         0.24756        -3.40099
H           3.51072         1.70774         0.29183

