%chk=Cc1dc2ccncc2dc-cdc-c2dc3cccqdc-ndc-cdc-n-1r-c-3dn-2.chk
%NProcShared=20
# opt freq b3lyp/6-31g(2df,p)

Title Card Required 

0  1
C           1.32487         0.73040        -0.33258
C           1.45315        -0.07673        -1.46360
C           2.24767        -0.76412        -0.10493
C           3.96199        -0.78356         0.45895
C           4.63720        -1.13310         1.65292
N           4.14699        -1.39414         2.89967
C           2.88330        -1.14906         2.96613
C           1.84853        -0.76518         1.70097
C           0.63679        -0.82272         2.14106
C          -0.82021        -0.85331         2.11592
C          -1.29443        -0.45029         1.07961
C          -1.79906         0.07069        -0.13581
C          -2.28278        -0.38033        -1.28221
C          -2.20875        -0.93126        -2.63358
C          -3.32104        -0.41588        -3.19804
C          -4.00476         0.59590        -2.35005
C          -4.86145         1.35585        -2.95404
N          -5.26162         1.64652        -4.21976
C          -4.17639         1.89687        -4.66683
C          -2.26625         1.79525        -4.25560
C          -1.17983         1.41868        -3.57956
N           0.08915         0.83160        -2.24387
C          -3.25038         0.65718        -1.15570
N          -2.90206         0.95583         0.01032
H           2.42516         1.08987        -0.57012
H           0.52914        -0.20139        -0.30977
H           0.69545         1.50340         0.02235
H           4.66264        -0.14069        -0.04984
H           5.75327        -1.11110         1.80857
H           2.49939        -1.23719         4.03580
H          -1.37372        -1.15716        -3.31943
H          -3.39525        -0.33985        -4.27167

