%chk=CC1dCqNrCdC2CdCCdCCdCNdC2[N]CdCdCCdC1.chk
%NProcShared=20
# opt freq b3lyp/6-31g(2df,p)

Title Card Required 

0  2
C           0.89812        -0.03014         0.08722
C           2.44802         0.45443        -0.03428
C           3.47333         1.39941        -0.00266
N           2.80917         2.51849         0.14117
C           5.11183         1.68427        -0.24983
C           5.99399         3.19467        -0.23691
C           7.01875         2.24508        -0.24328
C           8.03592         2.93456        -0.29622
C           9.32640         2.91459        -0.29370
C           9.51316         4.21217        -0.25478
C          10.88423         4.47576        -0.41487
C          10.31997         5.73557        -0.60479
N           8.52315         5.90426        -0.99606
C           6.78271         4.95568        -0.79738
N           5.15222         4.83663        -0.52429
C           3.42328         5.13087        -0.47109
C           1.85182         4.77321        -0.37471
C           0.48634         4.28381        -0.39632
C           0.61124         2.73682        -1.22461
C           1.45609         1.29571        -1.32401
H           0.28589         0.87397         0.15269
H           0.67250        -0.55296         0.96820
H           0.64687        -0.64113        -0.85411
H           1.80378         2.53921         0.10186
H           3.17102         3.26237        -0.39527
H           5.38171         0.45054        -0.11405
H           7.41522         1.27317        -0.17996
H           7.86087         3.86721        -0.23043
H          10.09918         2.23664        -0.26294
H           8.30240         5.03406         0.24976
H          11.83734         3.80588        -0.36094
H          11.37407         6.61908        -0.59854
H           3.15645         6.10711        -0.55792
H          -0.57960         4.54238         0.27658
H          -0.14115         3.66141        -1.77415
H           2.32039         0.14717        -1.05424

