%chk=CC1dCNdCC2dC3CdCCqCrdCCqdCC3dCdC2rCdCCdC1.chk
%NProcShared=20
# opt freq b3lyp/6-31g(2df,p)

Title Card Required 

0  1
C           3.30314         0.51943        -0.09577
C           5.72290         1.23600        -0.31232
C           3.86371         1.18026         0.07974
N           4.87249         1.59489         0.48018
C           5.30573         2.66781         0.65683
C           6.78088         2.22359         0.44676
C           7.28918         3.51655         0.95038
C           8.79574         3.54082         1.12031
C           9.36947         4.94972         1.00289
C          10.61303         5.42395         0.79599
C          11.64047         3.32010         0.64991
C          11.58734         6.25185         1.59442
C          12.21039         4.96306         1.84040
C          10.39321         4.14247         1.89405
C           7.78790         4.52720         1.37384
C           5.34068         4.65669         0.99680
C           7.54088         0.93963         0.15649
C          13.28988         6.13472         1.40377
C          12.17591         4.90827         0.30941
C          10.08068         3.54004        -0.21540
C           8.12304         2.41429        -0.38248
H           1.54286         0.86870         0.11193
H           1.74504        -0.24546         0.44131
H           1.69991        -0.00596        -0.68115
H           2.70645         2.04105         0.40765
H           4.54458         3.25173         0.66393
H           9.57865         2.40628         0.70360
H           9.22099         5.77205         1.25174
H          11.30534         2.31455         0.51889
H          12.51778         2.82760         1.58496
H          12.54307         3.33294        -0.22960
H          10.93644         6.91846         1.48019
H          12.29865         4.08395         1.58336
H           8.05688         0.06789        -0.04058
H          13.54156         7.72290         1.68162
H          13.84839         5.40805         0.92036
H          11.48128         4.65942         0.01252
H           6.55756         1.38431        -0.59938

