%chk=CC1qCrCdCNdCCdNCdNNC1CSCNdS.chk
%NProcShared=20
# opt freq b3lyp/6-31g(2df,p)

Title Card Required 

0  1
C           1.65184         0.43025        -0.19197
C           3.56591         0.81053        -0.58586
C           3.43609        -1.02512        -0.11659
C           3.17227         0.63135        -1.91282
C           4.41606         0.31601        -2.19765
N           4.77116         0.95651        -3.28468
C           6.02586         1.05535        -3.30253
C           6.41486         1.62971        -4.57774
N           7.58865         1.29595        -4.96772
C           8.05085         2.54566        -5.01449
N           8.04852         2.83203        -3.61970
N           6.67864         2.94126        -2.35673
C           5.01307         2.21518        -1.15740
C           3.76796         2.83966         0.18896
S           3.58323         3.09077         2.22625
C           2.63833         4.86725         2.44113
N           3.12570         5.54523         3.67916
S           2.69851         7.00508         3.80559
H           1.10456        -0.30138        -0.93331
H           0.93903         1.24796        -0.15051
H           1.22314        -0.21522         0.73054
H           2.86896        -1.67314        -0.87973
H           2.85819        -1.46990         0.80030
H           4.40570        -1.43463         0.00816
H           2.31331         1.16770        -2.29055
H           5.21234         0.11858        -1.29860
H           6.82081         0.94318        -2.45195
H           5.90099         2.58462        -4.91542
H           7.87132         3.17216        -6.13312
H           6.89519         3.72380        -3.28762
H           5.62995         1.78421        -0.36496
H           2.78312         2.14515         0.50102
H           2.95703         3.29237        -0.32914
H           1.53101         4.77985         2.45531
H           2.95532         5.36377         1.52988

