%chk=CCN[C]CdCCdCCCdCNCdS.chk
%NProcShared=20
# opt freq b3lyp/6-31g(2df,p)

Title Card Required 

0  1
C           0.96724        -0.11462        -0.05526
C           2.49604        -0.11765        -0.04462
N           2.84222         0.62906         1.13721
C           4.21621         0.92121         1.43086
C           4.99482         1.57378         2.40107
C           6.32367         1.64819         2.54615
C           6.84343         2.39723         3.67500
C           8.15181         2.56124         3.92314
C           8.66897         3.35230         5.09629
C          10.17505         3.38672         5.14660
C          10.85624         4.03127         6.10409
N          12.22613         4.05325         6.13650
C          12.96880         4.69718         7.09332
S          14.63334         4.67601         7.06222
H           0.57649        -0.67890        -0.90376
H           0.57781         0.91029        -0.11526
H           0.56439        -0.56112         0.86379
H           2.86950         0.35309        -0.95982
H           2.86587        -1.14675         0.00650
H           2.42375         0.19698         1.95780
H           4.36416         2.06656         3.13258
H           7.00724         1.17377         1.85209
H           6.11565         2.85126         4.34942
H           8.86737         2.10820         3.24559
H           8.29010         2.90503         6.02427
H           8.29002         4.38038         5.02936
H          10.71761         2.86156         4.36522
H          10.33954         4.56557         6.89801
H          12.75192         3.56785         5.41474
H          12.37285         5.21470         7.86230

