%chk=CdC1CdCdCCdCCdCSCqSrd[SH]S1.chk
%NProcShared=20
# opt freq b3lyp/6-31g(2df,p)

Title Card Required 

0  1
C           3.17108        -0.78603         0.37706
C           4.68263        -1.30661         0.47869
C           4.07112        -1.34596        -1.14931
C           4.82786        -0.59294        -1.85005
C           6.09928        -0.50702        -1.84729
C           6.67929        -1.77843        -2.22563
C           7.99095        -1.89231        -2.18512
C           8.59007        -3.12896        -2.55236
C           9.89004        -3.06307        -2.78478
S          10.74459        -4.51436        -2.58937
C          11.16038        -3.54581        -1.18725
S          12.86531        -2.94948        -1.40636
S           9.35682        -2.83794         0.16244
S           6.76972        -2.50210         0.33634
H           2.14586        -0.80081        -0.37091
H           2.35244        -0.03273         0.85285
H           3.02032        -1.47434        -1.61098
H           6.50183         0.07160        -0.99824
H           6.11321        -2.74256        -2.12308
H           8.53844        -1.13631        -1.59162
H           8.12999        -4.09814        -2.33770
H          10.37195        -2.12843        -2.39262
H          12.47918        -1.69801        -1.43651
H          10.10814        -4.18188        -0.07492

