%chk=Cdc1scc2c1dCCdCCdCCdCCdCCdC2.chk
%NProcShared=20
# opt freq b3lyp/6-31g(2df,p)

Title Card Required 

0  1
C           3.64893        -0.38106         0.01330
C           5.99841        -0.52392         0.07374
S           3.70923         0.70686         0.00762
C           5.20764         0.45616        -0.01009
C           6.49888        -0.94095         0.05985
C           8.84360        -1.18813         0.32034
C          11.29315        -1.75167         0.47554
C          13.84713        -2.29760         0.04687
C          14.12043        -3.70618        -0.11304
C          12.87248        -2.54258        -0.42038
C          11.60644        -3.19358        -0.23053
C          10.51350        -1.17026        -0.42781
C          10.11904        -2.69294        -0.10334
C          10.10350        -1.33954        -0.25765
C           8.81458        -2.75737        -0.17711
C           7.23811        -1.57735        -0.09813
C           5.90850        -2.21277        -0.02741
H           1.78157         0.39171        -0.00245
H           1.65935        -0.62062         0.00044
H           5.26171         1.42180        -0.02372
H          13.48268        -1.98059         0.41987
H          15.83837        -1.96402        -0.04038
H          15.15679        -4.29431        -0.05888
H          14.07615        -1.05784        -0.12845
H          12.56748        -3.94283        -0.03835
H          11.88584        -0.55910        -0.10519
H          10.18392        -3.59227        -0.01613
H           9.52667        -0.07660        -0.05261
H           7.81135        -3.06603        -0.00874
H           7.28199         0.19098        -0.04585
H           5.23095        -2.77540        -0.00960

