%chk=CdC1CdCCdCCdC[C]1NNS[S].chk
%NProcShared=20
# opt freq b3lyp/6-31g(2df,p)

Title Card Required 

0  1
C           1.71960         0.08601         0.03506
C           3.03212        -0.12965         0.43817
C           2.95642        -1.16067         1.40634
C           4.07504        -1.67934         1.41151
C           5.08397        -2.54140         1.84828
C           6.32730        -2.23687         1.30054
C           6.68316        -1.29551         2.32728
C           6.12986        -0.03185         1.44416
C           4.82997         0.38924         0.20865
N           3.89824         1.71106        -0.78366
N           3.77055         2.41291        -2.44794
S           2.15395         3.18913        -3.00057
S           2.81761         4.44996        -4.59594
H           0.90148        -0.47442         0.55817
H           1.06788         0.69190        -0.63483
H           2.09618        -1.57645         1.89881
H           4.64558        -1.37982         0.56970
H           4.80859        -2.73155         2.89839
H           6.87897        -1.65549         0.35504
H           6.80747        -2.40222         3.00875
H           7.48251        -0.28216         1.48219
H           2.87906         1.59330        -0.62875
H           3.76682         1.73985        -3.20947

