%chk=CdC1CdC2SC2dNSSS1d[SH]SS.chk
%NProcShared=20
# opt freq b3lyp/6-31g(2df,p)

Title Card Required 

0  1
C           1.10613        -0.18306         0.01295
C           2.44898        -0.20229        -0.06804
C           3.24701        -1.40264         0.22390
C           4.05422        -1.64289         1.26643
S           5.83122        -1.74592         1.37394
C           4.74578        -0.62228         1.98274
N           4.80978         0.48111         2.56521
S           3.38814         1.35463         2.52345
S           3.82095         2.35210         0.77115
S           3.11651         1.28592        -0.80716
S           4.63785         0.70395        -1.68572
S           5.31125         2.43024        -2.50345
S           6.84217         1.88069        -3.75304
H           0.51666        -1.01412         0.38035
H           0.53015         0.68620        -0.30932
H           2.71061        -2.28579        -0.12105
H           4.05325         0.16424        -2.74062
H           7.36005         3.08750        -4.03881

