%chk=CdC1SCdc2ccccc2dC2SSC1dC2N.chk
%NProcShared=20
# opt freq b3lyp/6-31g(2df,p)

Title Card Required 

0  1
C           1.14937        -0.02415        -0.65242
C           2.16719        -0.21914        -1.51049
S           3.64416         0.75528        -1.53307
C           5.10142        -0.21850        -1.19266
C           5.78555        -1.18951        -1.87218
C           7.27282        -1.19763        -1.67580
C           8.08691        -1.57953        -2.66924
C           7.57138        -2.24438        -3.85610
C           6.27374        -2.55907        -3.96141
C           5.28497        -2.13160        -2.93203
C           4.01789        -2.62112        -2.91417
S           3.14419        -2.99990        -4.39522
S           1.87158        -1.39225        -4.05456
C           2.16958        -1.41060        -2.33739
C           3.03770        -2.31967        -1.86691
N           3.27021        -2.51858        -0.49326
H           1.13081         0.72547         0.13223
H           0.27943        -0.68415        -0.68021
H           5.64162         0.21792        -0.35138
H           7.70869        -0.77071        -0.77310
H           9.17024        -1.45577        -2.61222
H           8.29663        -2.57408        -4.60109
H           5.96359        -3.21037        -4.77713
H           2.41797        -2.24740         0.00714
H           3.92687        -1.81198        -0.16510

