%chk=CdC1CdCCq[S]qNr[C]dOrdCC1dS.chk
%NProcShared=20
# opt freq b3lyp/6-31g(2df,p)

Title Card Required 

0  1
C           1.00084         0.02027        -0.05572
C           2.34564         0.07655        -0.07897
C           3.11348        -1.15169        -0.07894
C           4.45180        -1.14314        -0.09611
C           5.23771         0.08139        -0.08811
S           6.99484        -0.15677         0.24570
N           7.37936        -0.72439        -1.28406
C           7.75181         1.40891        -0.02021
O           8.40940         2.37570        -0.16681
C           4.62337         1.27790        -0.09007
C           3.10717         1.39738        -0.09206
S           2.38543         2.93329        -0.05105
H           0.45988        -0.92245        -0.04336
H           0.37371         0.90654        -0.04800
H           2.58283        -2.10029        -0.04701
H           4.98352        -2.08975        -0.07374
H           7.09827        -1.67572        -1.51859
H           8.37133        -0.68218        -1.53819
H           5.15604         2.21979        -0.02419

