%chk=CdCc1cc2cqccc1dSrdCNNCSCCd2.chk
%NProcShared=20
# opt freq b3lyp/6-31g(2df,p)

Title Card Required 

0  1
C           1.09306         0.11336         0.09877
C           2.48778         0.08651         0.11371
C           3.39137        -1.26906         0.11092
C           4.84324        -2.06853        -0.25297
C           6.46301        -3.44794        -0.45171
C           7.07863        -2.52832         0.39443
C           7.28702        -1.21591         0.15316
C           6.06179        -0.71950         0.22172
C           4.47019        -2.14890         0.32380
S           2.39240        -2.76028         0.26817
C           7.70725        -3.34432         1.17706
N           9.01755        -3.35586         0.87340
N           9.39206        -4.67871         1.10264
C          10.79683        -4.16728         0.69968
S          11.22653        -6.36225         0.58814
C          10.09079        -5.28070        -0.69243
C           7.92052        -4.45610        -0.67995
H           0.47100         1.01696         0.03972
H           0.42813        -0.76576         0.13816
H           2.94806         1.05209         0.03920
H           4.51418        -0.56832        -0.03696
H           8.34340        -1.02560         0.13197
H           6.32201         0.41284         0.07891
H           7.24542        -4.57671         1.24728
H           9.52831        -2.64280         0.25592
H           8.89032        -5.61055         0.28155
H          11.42018        -3.86146         1.45566
H          11.28964        -3.80960        -0.49694
H          11.57766        -5.29099        -0.74298
H          11.36179        -5.49825         0.27496
H           6.68197        -4.81162        -0.23907

