%chk=CdCC1dC2CdCCdCqN2rSCdCSCdC1.chk
%NProcShared=20
# opt freq b3lyp/6-31g(2df,p)

Title Card Required 

0  1
C           1.71768        -0.45400        -0.31947
C           3.39588        -1.20309        -0.73487
C           4.78069        -2.72969        -1.58718
C           5.01825        -1.36508        -0.82201
C           5.67964        -2.35330        -1.36684
C           6.95223        -2.27520        -1.35617
C           7.90711        -2.96503        -1.88962
C           8.06391        -2.01038        -1.00606
N           6.24491        -0.89600        -0.50341
S           9.62771        -3.24296        -1.85455
C          11.11949        -3.97052        -2.25731
C          11.74066        -5.01966        -2.84669
S          10.63823        -5.97911        -3.36333
C           8.38802        -5.10836        -2.89781
C           6.56347        -4.25963        -2.46668
H           0.70711         0.63161         0.28044
H           0.56263        -0.85744        -0.54259
H           3.13142         0.22934         0.05779
H           5.98070        -3.21235        -1.83850
H           7.47361        -0.93641        -0.70664
H           7.93606        -4.10921        -2.16943
H           5.69521         0.23813         0.07188
H          12.10822        -3.69776        -2.11203
H          11.51224        -6.34433        -3.57924
H           9.87317        -5.87255        -3.35585
H           5.16644        -4.28044        -2.43509

