%chk=CdCdCc1cc2cqcc3cccc1-3rCdC2.chk
%NProcShared=20
# opt freq b3lyp/6-31g(2df,p)

Title Card Required 

0  1
C           1.51005        -0.03130         0.06067
C           2.82592        -0.20466         0.12232
C           4.05316        -0.56347        -0.13380
C           5.39164        -0.35715         0.60360
C           5.49130         0.88347         1.43269
C           6.49920         1.25261         2.25306
C           7.89021         1.32091         1.97833
C           8.56235         0.75437         0.97116
C           7.79529         0.04385        -0.03783
C           7.46934         0.57466        -1.25332
C           6.78803        -0.45419        -2.05513
C           6.51028        -1.49579        -1.24083
C           6.59166        -0.88666         0.08592
C           8.05935         2.17973         3.09757
C           6.71532         2.28518         3.22268
H           0.96054         0.78327         0.51939
H           0.90123        -0.69602        -0.55165
H           4.17706        -0.77229        -1.19674
H           5.54247         1.56536         0.57012
H           9.64424         0.82189         0.90200
H           7.28415         1.64134        -1.35199
H           6.00207        -0.16929        -2.75006
H           6.70797        -2.52723        -1.50147
H           8.92614         2.64753         3.57235
H           5.99273         2.81921         3.83386

