%chk=CdCqCCrC1dCCdCCdCdC[SH]d[SH]1.chk
%NProcShared=20
# opt freq b3lyp/6-31g(2df,p)

Title Card Required 

0  1
C           1.46399        -0.23831         0.45791
C           2.81852        -0.01260         0.61568
C           3.27561         1.02654        -0.48940
C           2.26367         1.95633        -1.25387
C           3.98800        -1.04475         1.26326
C           4.81778        -1.45843         0.31317
C           5.42090        -2.69882         0.62782
C           6.73153        -2.85695         0.72410
C           7.11775        -4.02974         1.50199
C           8.35365        -3.92877         1.92540
C           8.88663        -2.97574         2.51201
S           7.44946        -1.64598         3.31910
S           5.35823        -1.01448         2.98962
H           0.83596         0.39952        -0.20477
H           0.79344        -1.01477         0.81476
H           3.81096         0.50286        -1.29680
H           3.96211         1.68785         0.02841
H           1.64257         1.42772        -1.99609
H           2.79953         2.72893        -1.82212
H           1.59280         2.47829        -0.56373
H           5.35256        -0.60566        -0.10124
H           4.82146        -3.42498         1.17487
H           7.34499        -1.93653         0.63631
H           6.51081        -4.24427         2.38921
H           9.95557        -2.80563         2.19966
H           8.38732        -0.72001         3.41685
H           4.72688        -2.12655         3.38868

