%chk=CdNC1dc2cc3cc-3ncccc2dC1.chk
%NProcShared=20
# opt freq b3lyp/6-31g(2df,p)

Title Card Required 

0  1
C           0.83732        -0.09014         0.10365
N           2.04954        -0.49863         0.15698
C           2.99939         0.39273        -0.50949
C           4.40563         0.56251        -0.77289
C           5.13234         2.30501        -0.74712
C           6.44209         2.42014        -0.67737
C           7.53247         3.10575        -0.83881
C           7.71797         1.80035        -0.45991
N           7.17533         0.59802        -0.08698
C           7.58733        -0.56303         0.23448
C           6.42868        -1.28621         0.49036
C           5.38306        -2.01531         0.73207
C           4.31674        -0.33788         0.45583
C           3.60394         1.07328         0.57607
H           0.14852        -0.88174         0.36752
H           0.44247         0.90145        -0.21469
H           4.55731         3.26508        -0.92123
H           7.62173         4.14242        -1.14457
H           8.56009        -1.05780         0.40410
H           5.41608        -1.35593         0.44526
H           6.31906        -2.89744         1.00227
H           3.05798         2.05196        -0.28551

