%chk=CN1NdCNdCCdCCdC2CdCCdCCdC21.chk
%NProcShared=20
# opt freq b3lyp/6-31g(2df,p)

Title Card Required 

0  1
C           3.76567         0.58288        -0.63912
N           6.09941         0.91501        -1.02261
N           4.24404         1.27833        -1.40719
C           5.36705         0.77084        -0.82488
N           4.88273         1.92564        -2.12087
C           6.07125         2.04644        -2.29364
C           6.80429         2.80960        -3.11637
C           8.02713         2.79402        -3.06721
C           8.95179         3.38060        -3.74584
C           9.71085         2.65185        -2.94165
C          10.86380         3.83321        -4.24729
C          12.37845         4.34623        -4.82011
C          13.26739         3.58947        -3.98769
C          12.27036         2.58964        -2.87277
C          10.35561         1.84620        -2.05268
C           8.40731         1.47413        -1.64439
H           2.45296        -0.08028         0.10893
H           2.22743         0.09359        -0.98623
H           2.22981         0.98954        -0.18202
H           5.03582        -0.00046         0.02496
H           7.21705         1.21036        -1.32688
H           6.48394         3.39675        -3.76513
H           7.46803         2.22059        -2.34414
H           8.80582         4.08988        -4.53450
H          10.59172         4.74940        -5.26817
H          12.87989         5.14932        -5.70770
H          14.58172         4.06340        -4.52540
H          13.87175         2.55113        -2.82362
H          11.86703         1.71626        -1.89324

