%chk=CN1SCdCCdCdCCdCCdCqNrC1dS.chk
%NProcShared=20
# opt freq b3lyp/6-31g(2df,p)

Title Card Required 

0  1
C           2.58340        -0.96707        -0.12622
N           4.48058        -2.08388        -0.46671
S           3.54758        -1.12732        -1.76665
C           5.11820        -0.42863        -1.53828
C           6.07709        -1.18063        -2.12705
C           7.50808        -1.16258        -1.68839
C           8.37484        -1.83630        -2.37779
C           9.22961        -2.40939        -3.15581
C          10.18189        -3.30651        -2.64689
C          10.79645        -4.19029        -3.41345
C           9.87994        -4.99617        -2.24491
C           8.24740        -4.39149        -1.53197
N           9.59376        -5.85838        -2.33619
C           6.36649        -3.19794        -0.90722
S           5.69838        -1.92667         0.77263
H           1.15173        -0.88593        -0.75012
H           1.55073         0.33234        -0.16138
H           1.29090        -0.69010         0.78728
H           5.57206         0.04694        -0.56176
H           5.65252        -2.07988        -2.62550
H           7.82460        -0.67277        -0.75333
H           9.44688        -2.11265        -4.14959
H          10.15239        -3.63260        -1.38598
H          10.97341        -4.14205        -4.50945
H          11.04372        -5.74222        -1.48380
H          10.95150        -6.14948        -3.00065
H          10.86382        -6.67781        -2.41091

