%chk=CNC1dCCdCCdCCdCCdCCdCCdNS1.chk
%NProcShared=20
# opt freq b3lyp/6-31g(2df,p)

Title Card Required 

0  1
C           1.92084        -0.47198         0.25686
N           3.85475        -1.55298         0.63511
C           5.56069        -2.99900         1.14107
C           4.96602        -1.37660         0.57340
C           5.70194        -2.59020         0.99808
C           7.16861        -2.25664         0.88136
C           8.08546        -3.12758         1.18614
C           9.31089        -3.41920         1.28815
C          10.04074        -4.62182         1.70895
C          11.26211        -4.52913         1.67655
C          11.71110        -5.62978         2.06176
C          13.03702        -5.65822         2.07165
C          12.98610        -7.13173         2.58722
C          14.27715        -7.07781         2.56838
C          12.09948        -7.12256         2.58394
N          10.00442        -6.30060         2.29631
S           7.51548        -5.01581         1.84676
H           0.95121         0.84639        -0.20447
H           0.80343        -0.19088         1.09634
H           0.80343        -0.77562        -0.57473
H           3.45873        -0.07876         0.11926
H           5.23132        -0.28637         0.19191
H           4.52834        -3.79103         1.41828
H           7.31606        -1.35289         0.56511
H           8.71130        -4.08902         1.52266
H           9.54887        -2.54716         0.98301
H           8.96774        -5.65022         2.06887
H          11.66601        -3.71325         1.39105
H          10.88139        -7.14585         2.59235
H          13.81902        -5.08201         1.87000
H          12.74485        -8.63436         3.11306
H          15.56284        -6.50180         2.36682
H          13.71841        -8.13384         2.93787

