%chk=CNSCd[SH]CqdCSCSrCSCSS.chk
%NProcShared=20
# opt freq b3lyp/6-31g(2df,p)

Title Card Required 

0  1
C           0.92819        -0.03453        -0.02386
N           2.34627         0.24600        -0.19943
S           2.81314         1.63255        -1.03761
C           4.53423         1.46852        -0.85623
S           5.60799         2.65043        -1.63514
C           7.38508         2.19990        -1.25178
C           7.78091         1.05805        -0.61143
S           6.81900        -0.19265         0.03012
C           7.77888        -1.47537         0.78513
S           6.59546        -2.71588         1.42420
C           8.43613         3.23608        -1.81540
S          10.17608         2.70277        -1.52423
C          11.23193         4.00292        -2.25110
S          12.96339         3.42697        -1.93468
S          14.16354         4.87840        -2.73528
H           0.76987        -0.97688         0.51483
H           0.43529        -0.11763        -0.99650
H           0.45538         0.76092         0.55857
H           2.79391        -0.59269        -0.58099
H           4.76824         0.59523        -0.27383
H           5.43250         3.68034        -0.83311
H           8.83714         0.87556        -0.47831
H           8.36656        -1.09573         1.62159
H           8.42013        -1.95770         0.04756
H           5.85314        -1.86337         2.15393
H           8.27775         4.21195        -1.33975
H           8.28159         3.35200        -2.89590
H          11.07181         4.95991        -1.74887
H          11.06870         4.08311        -3.32853
H          15.36419         4.34387        -2.44115

