%chk=COc1ccc2cqccnc3c1dCCd3rCdCN[SH]qSrCdC2.chk
%NProcShared=20
# opt freq b3lyp/6-31g(2df,p)

Title Card Required 

0  1
C           1.06928         0.54420        -0.37811
O           2.20715         1.29829        -0.99302
C           3.09278         2.21993        -1.87127
C           4.46331         1.66251        -1.50193
C           6.28336         1.56683        -1.62457
C           7.64757         2.02494        -2.13052
C           7.51953         3.26899        -2.81719
C           6.67139         4.03368        -3.40299
C           5.27443         4.00431        -3.42064
N           4.65362         4.83764        -4.11747
C           3.34958         4.57641        -3.89219
C           2.48693         3.63848        -3.07865
C           1.46035         4.44611        -3.74334
C           2.41270         5.27910        -4.48456
C           8.74200         3.94210        -2.61802
C           9.61520         4.62069        -3.14890
N          10.86244         4.50675        -2.50785
S          11.78156         4.14438        -3.80957
S          11.59844         6.58884        -3.64871
C          10.87028         2.29770        -3.04247
C           9.51297         1.71672        -2.28347
H           1.24316        -0.32218         0.36978
H           0.50595        -0.00267        -1.13919
H           0.49144         1.20514         0.27248
H           4.38750         0.88927        -0.69926
H           5.78068         2.48532        -1.87581
H           7.08497         4.81237        -4.00401
H           4.71265         3.34758        -2.81653
H           0.44141         4.78384        -4.00916
H           2.68736         6.12552        -5.20245
H           9.12758         3.64054        -1.67713
H           9.48532         4.98294        -4.19100
H          11.06401         3.77689        -1.77562
H          11.44504         4.35746        -5.12762
H          11.88147         6.88510        -2.34929
H          11.96646         2.14508        -2.82692
H           9.58103         1.03595        -1.39541

