%chk=COc1cnc2cqc1rdCCdCd[SH]CdCNd2.chk
%NProcShared=20
# opt freq b3lyp/6-31g(2df,p)

Title Card Required 

0  1
C           1.17538        -0.01109        -0.09591
O           2.63531         0.05878        -0.20267
C           3.13629         1.28514        -0.65758
C           4.55027         1.64433        -1.16268
N           5.08224         2.93400        -1.11820
C           4.14187         4.17132        -0.77666
C           2.98353         3.53970        -1.34145
C           2.46653         2.42746        -0.63911
C           2.41309         4.40279        -2.15501
C           1.23756         4.84183        -1.46448
C           1.03030         6.13678        -1.70104
S           1.42758         7.62537        -1.57929
C           1.73198         7.06641         0.15524
C           3.06198         6.65511         0.28305
N           4.15594         5.52142        -0.28836
H           0.84275        -0.85301         0.53014
H           0.73443        -0.15163        -1.09057
H           0.72853         0.87538         0.36986
H           5.04209         0.68080        -1.57174
H           1.57248         2.55032        -0.08792
H           3.08748         5.14048        -2.63873
H           1.24661         4.56920        -0.38054
H           0.28020         8.19624        -1.89395
H           1.08805         7.58016         0.92360
H           3.45121         7.73739         0.26627

