%chk=CSc1cccc2cqccs1rdCNdNCdCCd2.chk
%NProcShared=20
# opt freq b3lyp/6-31g(2df,p)

Title Card Required 

0  1
C           1.06304        -0.04360        -0.02285
S           2.99588        -0.10104         0.01342
C           3.84580        -1.79192         1.08127
C           5.12194        -1.60424         0.96274
C           5.11626        -3.30746         2.03782
C           6.26530        -4.11185         2.54740
C           7.61235        -5.04068         3.13251
C           8.74853        -4.19143         2.59664
C           8.82347        -2.96615         1.82283
C           7.97160        -2.05030         1.24444
S           6.17804        -1.79564         1.08362
C           9.86471        -4.74592         2.94682
N          11.19282        -4.81364         2.98958
N          11.19241        -5.81085         3.61936
C          11.22948        -6.89144         4.30179
C           9.76665        -7.14277         4.46051
C           8.06243        -6.34720         3.95809
H           0.66016         0.84359        -0.58315
H           0.62343         0.04973         0.97596
H           0.62343        -0.90536        -0.53638
H           5.45467        -0.41741         0.21322
H           4.16583        -3.79868         2.34862
H           6.91612        -3.44293         2.12394
H           9.92441        -2.91416         1.79000
H           8.59612        -1.28194         0.75920
H           9.50648        -5.55026         3.45479
H          12.36269        -6.69535         4.17795
H          10.18652        -8.05993         5.03973
H           6.97328        -6.55817         4.09132

