%chk=CSC1dCNdCCdCCdCCdC2SSCdC12.chk
%NProcShared=20
# opt freq b3lyp/6-31g(2df,p)

Title Card Required 

0  1
C           2.88635        -0.36006         1.18960
S           5.15855        -0.37377         2.75775
C           7.56279        -0.70677         3.79019
C           6.45499        -1.12516         2.54423
N           5.91803        -2.28354         3.32440
C           7.07259        -2.80871         3.35992
C           6.82076        -2.55363         4.85259
C           8.06553        -2.82353         4.85295
C           8.43600        -3.17728         6.11812
C           9.66966        -3.55402         6.15405
C          10.02060        -3.34041         7.47276
C          10.58522        -2.38586         6.55130
S          11.74869        -3.79792         7.97722
S          12.82295        -2.53400         7.19406
C          11.21152        -1.84796         5.62495
C           9.44849        -1.35398         5.08697
H           1.90028         0.05822        -0.06082
H           1.43228         0.30403         1.12109
H           1.54739        -1.03444         0.53784
H           6.13106        -0.71889         1.13241
H           7.79459        -2.06082         2.36093
H           5.99345        -2.65345         5.51130
H           8.80271        -2.27395         3.79051
H           7.90684        -3.27544         6.99964
H          10.36807        -3.34561         4.99966
H           9.89199        -4.08608         8.35904
H          12.68690        -2.23840         5.95125

