%chk=CSC1dc2ccccc2dNNdS2CdC12.chk
%NProcShared=20
# opt freq b3lyp/6-31g(2df,p)

Title Card Required 

0  1
C           0.52567         0.31305         0.40444
S           1.99260         1.09739         1.07575
C           3.34469         0.01236         0.75148
C           4.55996         0.36618         1.29732
C           4.87986         1.15078         2.53921
C           6.13252         1.56176         2.83700
C           7.25695         1.17163         2.01649
C           7.09455         0.43083         0.93733
C           5.74424         0.21300         0.34217
N           5.78374         0.11820        -0.95746
N           4.62495         0.20823        -1.62543
S           4.17234        -1.20557        -1.86120
C           2.50057        -1.06726        -1.45884
C           3.22265        -0.95237        -0.35610
H           0.50805        -0.10221        -0.59965
H          -0.23112         1.09498         0.35033
H           0.22993        -0.47770         1.09032
H           4.10524         1.38530         3.26658
H           6.38013         2.15282         3.71817
H           8.25690         1.50427         2.30315
H           7.91370         0.13495         0.28750
H           1.59608        -0.78767        -1.95218

