%chk=CSC1dCCdCCdCCdCCdCqNSrNdC1N.chk
%NProcShared=20
# opt freq b3lyp/6-31g(2df,p)

Title Card Required 

0  1
C           1.10542        -0.08217        -0.02590
S           3.22540        -0.20466        -0.83542
C           4.24839        -0.51795        -2.90590
C           5.05336        -0.36276        -1.88024
C           5.51379        -0.54061        -3.05564
C           6.73761        -0.58017        -3.31710
C           7.24257        -0.76271        -4.52344
C           8.51482        -0.77903        -4.63127
C           8.92724        -0.95332        -5.78315
C           9.97382        -1.09308        -6.70677
C          10.37823        -1.33637        -8.31463
C           9.41066        -1.17659        -7.25866
N          11.60179        -1.19055        -7.35098
S          12.69320        -0.93759        -5.67916
N           7.28982        -1.01874        -6.21552
C           5.52296        -0.83106        -4.97518
N           3.43489        -0.71644        -4.21766
H           0.71512         0.08239         1.06164
H           0.66339        -1.02586        -0.30920
H           0.66339         0.73546        -0.57572
H           5.49926        -0.22669        -0.98104
H           4.78359        -0.68512        -4.01068
H           7.39642        -0.47447        -2.61851
H           6.19589        -0.97216        -5.90765
H           9.34336        -0.70895        -4.16818
H           8.06962        -1.18136        -7.29018
H          10.77990        -1.00645        -6.13428
H           9.98982        -1.47732        -9.24616
H          13.14959        -1.22807        -7.59894
H          11.51086        -0.85197        -5.11337
H           1.99593        -0.64643        -3.75498
H           2.47423        -0.52970        -2.98356

