%chk=N[SH]dC1CdCCdCCqdOr[SH]dN1.chk
%NProcShared=20
# opt freq b3lyp/6-31g(2df,p)

Title Card Required 

0  1
N           1.30537        -0.08487        -0.64025
S           2.85354        -0.65486        -1.11111
C           4.17879        -0.37010        -2.78484
C           5.19383         0.15226        -1.87615
C           5.82488         0.99599        -2.74060
C           7.17610         1.05877        -3.02901
C           7.27597         1.30561        -4.36895
C           7.84870         0.04195        -4.61904
O           9.03893        -0.23825        -4.45356
S           6.32500        -1.28095        -4.79040
N           4.70344        -0.83254        -4.21757
H           1.06474        -0.01137         0.39363
H           0.61369        -0.82488        -0.81893
H           3.40742        -1.10120         0.00917
H           5.40838        -0.21123        -0.91292
H           5.21411         1.22632        -3.59350
H           7.80366         0.28580        -2.51240
H           6.40054         1.41396        -5.05365
H           6.64888        -0.89985        -6.09599

