%chk=Nc1ccccc2cc-2c2c1CdCCdCNNdCdC2.chk
%NProcShared=20
# opt freq b3lyp/6-31g(2df,p)

Title Card Required 

0  1
N           0.78790         0.18418        -0.52270
C           1.70386         0.08527        -1.64397
C           2.99620        -0.04960        -1.04643
C           4.28556        -0.22531        -0.77052
C           5.14547        -0.61454        -1.77219
C           6.41469        -0.47204        -2.08490
C           6.15488        -0.29858        -3.46578
C           6.73953        -0.36343        -4.57254
C           5.01920         0.04996        -4.12983
C           3.32079        -0.03885        -4.15983
C           1.69895         0.19961        -3.16869
C          -0.29457         0.41633        -3.21715
C          -1.50812         0.33385        -3.98772
C          -0.86065         0.92666        -5.12310
C          -0.32289        -0.07930        -5.79956
N           0.99657        -0.20714        -5.84497
N           1.56118        -1.18739        -6.53326
C           2.68671        -1.10241        -6.32056
C           3.69719        -0.68911        -5.67021
H           0.79515        -0.42196         0.33056
H          -0.16168         0.44992        -0.69823
H           3.00056        -0.67473        -1.95806
H           4.87054        -0.00049         0.07964
H           4.51747        -1.00905        -2.55628
H           7.28169        -0.21889        -1.50675
H           7.88676        -0.46896        -4.04542
H          -0.92818         1.29839        -2.64342
H          -2.42260         0.11512        -4.72661
H          -0.27290         1.79309        -4.77336
H          -0.86375        -0.98322        -6.04643
H           1.51483         0.46255        -5.25538
H           4.65584        -0.81764        -6.25790

