%chk=Nc1ccc2cqc1rdC1CdCCdCCd2[SH]dNS1.chk
%NProcShared=20
# opt freq b3lyp/6-31g(2df,p)

Title Card Required 

0  1
N           1.12653        -0.01575         0.08593
C           2.52102        -0.08039         0.03152
C           3.60012         0.90520        -0.11456
C           5.09221         0.54317        -0.08670
C           5.81056        -1.14903         0.10868
C           4.47242        -1.58053         0.09594
C           3.11064        -1.21576         0.29806
C           4.57799        -2.69076        -0.50117
C           3.73862        -3.81572        -0.24175
C           4.37665        -4.93629        -0.07861
C           5.60559        -5.43640        -0.63367
C           6.79837        -4.36524        -0.57708
C           6.95449        -2.57096        -0.01286
S           8.63529        -1.98836        -1.11189
N           7.37643        -1.26133        -1.62660
S           5.69895        -2.52014        -2.15401
H           0.58217         0.82415        -0.03114
H           0.59501        -0.89818         0.10011
H           3.03140         1.88440        -0.07550
H           5.52085         1.57376         0.03217
H           2.48888        -2.04676         0.48892
H           2.74748        -3.84308         0.09702
H           5.19699        -4.36836        -0.26030
H           4.55142        -6.14439        -0.58109
H           6.92185        -5.61126        -0.88852
H           9.57455        -1.29388        -0.25296

