%chk=Nc1cccccccn2cqc3nc1-3rCdCCdCCdC2.chk
%NProcShared=20
# opt freq b3lyp/6-31g(2df,p)

Title Card Required 

0  1
N           3.20552         0.91903         1.63297
C           4.49816         1.83470         3.15799
C           3.84785         1.01114         1.79029
C           5.12986         0.64663         1.18162
C           5.94201         1.17207         2.05594
C           7.25915         1.07947         1.90146
C           7.79768         1.66360         2.87353
C           9.12948         1.74834         3.01873
C          10.19303         2.15707         3.70754
N          11.78386         2.49659         4.31014
C          10.55385         3.16537         5.37675
C           8.61730         3.04460         5.17681
N           7.34995         3.15735         5.36097
C           6.41881         2.55586         4.36144
C          12.50100         3.44752         5.83739
C          13.60064         3.86892         6.56327
C          15.15064         3.56022         6.08198
C          15.95749         4.14193         6.98402
C          15.16725         3.26027         5.37156
C          13.79264         2.37307         4.33780
H           2.41577         0.27248         0.55715
H           1.82391         0.69361         1.25786
H           2.54001         1.52000         2.63758
H           5.13358         0.08465         0.24480
H           5.73573         1.96279         3.37291
H           7.41853         0.57971         1.06939
H           6.91828         1.82216         3.13852
H           9.50522         1.28982         2.25297
H           9.17581         2.34264         4.00256
H          13.54745         3.27148         5.47508
H          13.28772         4.35506         7.35918
H          16.46376         2.96289         5.09087
H          15.55402         4.73997         7.99930
H          16.63825         3.64196         6.17275
H          12.88703         2.02855         3.28853

