%chk=Nc1ccccc2cc3cccc-3cccc-2nc1.chk
%NProcShared=20
# opt freq b3lyp/6-31g(2df,p)

Title Card Required 

0  1
N           2.00827         0.98596        -0.28777
C           3.34665         1.39998         0.16816
C           3.56704         0.88062         1.51288
C           4.76142         0.34146         1.73675
C           5.62918         1.20907         2.58051
C           6.83265         1.42968         2.28204
C           7.29824         2.86094         2.21401
C           8.47996         2.98520         2.83598
C           9.18406         4.08399         3.48004
C           9.07736         4.45452         4.76756
C          10.20161         5.30535         5.16128
C          11.04234         5.44152         4.12068
C          10.38768         4.74971         2.98552
C          10.68754         4.71207         1.69895
C           9.87447         3.98861         0.60935
C           8.56603         3.82073         0.08694
C           7.00224         3.13425         0.65016
N           5.76310         2.65953         0.27554
C           4.52720         2.02890        -0.40280
H           1.32185         1.08057         0.49557
H           1.86357        -0.03254        -0.40394
H           3.01012         1.44251         2.26416
H           5.30008        -0.09679         0.87340
H           5.03868         2.06188         3.00444
H           7.38391         0.83404         1.50398
H           9.21158         2.20815         2.56453
H           8.34263         4.08058         5.46094
H          10.31408         5.73739         6.15011
H          11.95941         6.02479         4.14103
H          11.67953         5.13128         1.42310
H          10.41696         3.02202         0.67998
H           8.68490         3.40548        -0.92128
H           4.73142         1.47170        -1.32907

