%chk=NC1C2dCCdCCdCCdCNCdCCqCdCdCCdOrdC1CdC2.chk
%NProcShared=20
# opt freq b3lyp/6-31g(2df,p)

Title Card Required 

0  1
N           0.85670         0.01943         0.06115
C           2.26693        -0.23947         0.15068
C           2.83305        -1.33988        -0.76349
C           3.14260        -2.52903        -0.32376
C           2.81975        -2.96684         0.99785
C           3.11528        -4.10180         1.55280
C           2.74064        -4.49582         2.82035
C           2.96068        -5.72716         3.25353
C           2.17531        -6.25183         4.31269
C           2.58310        -7.35857         4.94752
N           2.38818        -7.19132         6.30441
C           3.45214        -5.66656         5.69320
C           3.38228        -3.80480         4.69970
C           3.25057        -1.93154         3.32611
C           3.08538         0.32243         2.86023
C           3.24735         2.19802         2.45282
C           3.26734         4.06901         2.14299
C           4.34458         5.47822         3.05691
O           4.53083         6.68972         3.40211
C           3.29972        -0.92565         1.54633
C           3.40631        -0.08656        -0.44927
C           3.31346        -0.74306        -1.85219
H           0.54263        -0.78161         0.56977
H           0.56619        -0.03819        -0.91534
H           2.46541         0.22604         1.04397
H           3.59916        -3.18538        -0.98622
H           2.27887        -2.31297         1.68770
H           3.52414        -4.81069         0.91354
H           2.25337        -3.73641         3.49657
H           3.48071        -6.45773         2.74501
H           1.72351        -5.33121         5.21960
H           3.36638        -8.09662         4.65700
H           2.07117        -6.88649         7.28460
H           3.55645        -7.30999         6.23703
H           3.17295        -4.98685         5.90335
H           2.47624         1.44769         1.99911
H           2.84824         5.59853         1.72359
H           5.01282         4.80593         3.50521
H           3.30804         0.81305        -1.80883
H           3.25834        -1.12156        -2.95768

