%chk=NC1dCCdCC2dCdCdCCqdOrCdCCdNS2dCCdCCdC1.chk
%NProcShared=20
# opt freq b3lyp/6-31g(2df,p)

Title Card Required 

0  1
N           1.43590        -0.11514        -0.33579
C           2.92854        -0.14078        -0.42176
C           3.44179         0.53732         0.69104
C           4.88339         0.80781         1.00445
C           5.60301         1.52398         1.95908
C           7.21855         1.74609         2.50363
C           7.30954         1.79090         3.73855
C           7.85160         2.38300         4.64885
C           8.57527         3.11285         5.35048
C           8.89155         4.47689         4.90924
O           8.71010         4.98571         3.80429
C           9.77828         5.13340         5.86589
C          10.61231         5.85787         5.12804
C          11.12547         4.31361         4.27615
N          10.47806         3.10232         3.41515
S           9.08575         2.69128         1.74570
C           8.21595         0.94500         0.43278
C           7.77561        -0.09447        -1.09114
C           6.72073        -0.76696        -1.84662
C           5.20378        -1.22105        -2.38918
C           3.80844        -0.93788        -1.77324
H           0.95688         0.36434         0.45437
H           0.74091        -0.48134        -0.98449
H           2.71874         0.94970         1.43709
H           5.31961         0.22244         0.23154
H           4.94918         1.85784         2.77690
H           8.89242         2.65537         6.25698
H          10.15601         4.59255         6.75723
H          10.98700         6.53401         4.38506
H          11.98086         4.39148         5.40140
H           7.15042         0.98735         0.64753
H           8.68883        -0.58915        -1.43233
H           5.84185        -0.58683        -1.27788
H           5.66306        -1.86700        -3.31516
H           2.87602        -1.28922        -2.27040

