%chk=NC1dCdCdC2Ndc3ccooccccccc3dC2CdC1.chk
%NProcShared=20
# opt freq b3lyp/6-31g(2df,p)

Title Card Required 

0  1
N           1.02946        -0.10947         0.09137
C           2.78053        -0.47518         0.49876
C           3.17778        -1.82235         0.74014
C           4.08984        -3.11130         1.07863
C           5.43258        -3.83411         2.23197
N           6.84410        -3.57306         1.96383
C           7.61390        -4.68076         2.85099
C           8.39070        -3.89752         2.08574
C           8.84805        -4.86198         2.64240
O          10.22120        -4.93863         2.62313
O          10.74783        -5.94497         3.25559
C          11.94446        -5.80746         3.00668
C          12.57850        -6.89838         3.24430
C          13.90990        -7.11634         3.61638
C          13.01774        -7.28216         5.22622
C          13.49387        -7.69526         4.26300
C          11.34471        -6.98932         4.33657
C           9.12670        -5.92994         3.86872
C           7.07289        -4.74036         3.28264
C           5.28917        -3.19609         2.61740
C           4.30147        -1.50562         1.65301
H           0.42457        -0.77804         0.52875
H           0.46231         0.66313        -0.42811
H           8.60889        -3.20628         1.55584
H           7.80835        -5.96002         3.62394
H          12.64424        -5.37207         2.63492
H          11.82046        -8.21919         4.36287
H          14.82300        -6.51556         3.37380
H          13.65093        -8.83980         5.39612
H          15.35238        -7.80190         4.08911
H          12.84539        -8.29567         4.25417
H           3.58199        -3.58530         2.76642
H           3.80286        -0.24703         0.46825

