%chk=NC1dC2CdCCdCCdCCdCNdCC2dC[Sc]1.chk
%NProcShared=20
# opt freq b3lyp/6-31g(2df,p)

Title Card Required 

0  2
N           0.95027        -0.05367         0.06816
C           2.42027        -0.05367         0.06816
C           3.19070         1.02125         0.06964
C           2.73837         2.47238         0.07131
C           1.41119         2.77117         0.07140
C           0.95887         4.22231         0.07308
C          -0.36831         4.52110         0.07316
C          -0.82064         5.97224         0.07484
C          -2.14782         6.27103         0.07493
C          -2.60015         7.72217         0.07660
C          -3.92733         8.02096         0.07669
N          -4.36478         9.42436         0.07831
C           5.86124         1.35148         0.06540
C           4.58934         0.51923         0.06932
C           4.50033        -0.80028         0.07315
Sc          3.20254        -1.14512         0.06666
H           0.45802         0.79893         0.06933
H           0.45802        -0.90628         0.06699
H           3.43807         3.23097         0.07239
H           0.71150         2.01259         0.07032
H           1.65856         4.98089         0.07415
H          -1.06801         3.76252         0.07209
H          -0.12094         6.73082         0.07592
H          -2.84752         5.51245         0.07385
H          -1.90045         8.48075         0.07768
H          -4.62703         7.26237         0.07561
H           6.89222         1.30565         0.06312
H           5.29675        -1.45655         0.07999

