%chk=NC1dCCdCqCdOr[SH]dCCdCN1.chk
%NProcShared=20
# opt freq b3lyp/6-31g(2df,p)

Title Card Required 

0  1
N           2.04937         0.16525         0.08210
C           3.84214         0.55319         0.55662
C           3.32391         1.67973         0.16025
C           4.48435         1.55274        -0.72964
C           5.32986         2.53758        -0.57373
C           4.59880         3.83960         0.31490
O           3.37853         3.98767         0.39516
S           7.32198         1.26860        -0.39202
C           6.84878         3.40350         0.39930
C           8.43206         3.25980         0.49904
C           6.94085         2.88554         0.90543
N           5.51989         1.28425         1.07913
H           1.14353         0.86906         0.07380
H           1.25708        -0.69903        -0.10002
H           2.37087         2.21205         0.08405
H           5.38813         0.48080        -0.79186
H           5.18505         4.74896         0.47881
H           7.82139         1.81305        -1.33809
H           6.89507         4.77909         0.38205
H           9.62203         3.14901         0.27707
H           8.12879         3.92246         0.58419
H           5.06344         0.20121         0.52122

