%chk=NC1dCdc2cnncc2dCCdCC2dCqCdCCdC1rCdC2O.chk
%NProcShared=20
# opt freq b3lyp/6-31g(2df,p)

Title Card Required 

0  1
N           1.41029        -0.02754        -0.05933
C           2.58940        -0.62893         0.58605
C           3.44402        -0.98891        -0.41504
C           3.86137        -1.83923        -1.35863
C           4.71248        -1.55401        -2.55288
N           5.13342        -2.43947        -3.41437
N           4.91581        -3.81868        -3.18337
C           4.25859        -4.18636        -2.13114
C           3.51719        -3.27838        -1.23725
C           2.45116        -3.85820        -0.61136
C           1.33506        -2.98705        -0.22186
C           0.34483        -2.84904         0.64387
C          -0.22713        -1.62025         1.80981
C          -0.77167        -1.97311         2.99509
C          -0.51792        -3.21399         3.72097
C           0.57756        -3.77322         3.17380
C           1.92943        -2.83048         2.77761
C           2.57531        -1.78211         1.95005
C          -0.64700        -0.69852         3.58478
C           0.10628        -0.27635         2.48500
O           0.70867         0.81166         2.31851
H           0.83210        -0.70666        -0.58356
H           0.64129         0.42269         0.44468
H           5.04487        -0.51674        -2.72090
H           4.13861        -5.26343        -1.92807
H           2.46336        -4.90541        -0.32980
H           1.85867        -2.12904        -0.23050
H           0.33142        -3.85373         1.01711
H          -1.23156        -3.68248         4.40231
H           0.27099        -4.67463         2.58663
H           2.46090        -3.80660         2.80602
H           3.06206        -1.04011         2.61070
H          -0.91952        -0.32061         4.55187
H           1.50303         0.76798         1.73191

