%chk=NC1qNrCdCCdCdCNdCdCCqdSrCdCCdCCdCCdC1.chk
%NProcShared=20
# opt freq b3lyp/6-31g(2df,p)

Title Card Required 

0  1
N           3.80040         1.19420        -0.35854
C           6.24567         2.07395        -0.73115
N           4.36601         0.56059        -1.14863
C           4.04409         1.61194         0.03586
C           4.72959         1.59812         1.05979
C           4.89038         2.88380         1.17546
C           6.16676         3.10773         1.25557
C           7.44102         3.30366         1.37952
N           8.24040         3.65180         0.48244
C           9.62688         3.78537         0.72731
C          10.93175         3.65118         0.40729
C          11.18475         5.09738         0.43213
S          10.32856         6.35362        -0.86842
C          12.87751         5.22312         0.51389
C          13.02381         6.62763         0.10561
C          14.95786         6.61447         0.14015
C          14.89242         7.83062        -0.48051
C          15.62614         7.02229        -1.00386
C          13.65394         6.10473        -1.43165
C          11.23081         4.56181        -1.24863
C           9.06605         3.40754        -1.03196
H           1.99305         0.82081        -0.42920
H           2.20225         0.54181         0.38258
H           2.86173         0.48371        -1.82438
H           3.16316        -0.71688        -1.45532
H           2.47571         1.99526         0.75990
H           5.24509         0.69971         0.67742
H           4.14536         3.58735         1.40501
H           7.92937         3.54548         2.24594
H          11.61500         2.93741         0.70489
H          13.68746         4.49166         0.27570
H          12.76064         7.23188        -1.04632
H          15.74549         5.81518        -0.06804
H          14.68144         8.69037        -1.34599
H          17.45083         7.34890        -0.52076
H          15.10152         7.51539        -1.83222
H          13.06888         5.32674        -1.24689
H           8.13431         2.13389        -0.19982

