%chk=NdC1CdCCdCCdCCqdOrNd[SH]C1.chk
%NProcShared=20
# opt freq b3lyp/6-31g(2df,p)

Title Card Required 

0  1
N           1.93588         0.15131         0.03557
C           3.69953         0.49738         0.12736
C           2.96613         0.94438         1.22078
C           4.17477         0.85276         1.39465
C           5.00139         1.61496         2.26596
C           6.31941         1.53618         2.37834
C           6.88038         2.09666         3.45228
C           8.04671         1.35549         3.59575
C           8.88073         2.62188         4.31503
O           8.71731         3.53946         5.14277
N           9.44904         2.57231         2.99785
S           8.09716         2.39856         1.45894
C           5.83985         1.01221         0.32222
H           0.66588         0.50416         0.60746
H           2.35238         1.34207         1.86843
H           5.08149         0.79940         1.70019
H           4.52042         2.10627         2.96745
H           7.03585         0.93491         1.53358
H           6.64590         2.88710         4.08445
H           9.09055         1.08920         2.56483
H           9.20800         3.25482         2.71545
H           5.01249        -0.27468        -0.00505
H           4.91010         0.36716        -0.67188

