%chk=Ndc1ccccc2cqcc3cc1-3rdCCd2.chk
%NProcShared=20
# opt freq b3lyp/6-31g(2df,p)

Title Card Required 

0  1
N           3.31591        -0.45388         0.06039
C           4.60679        -0.33792         0.03679
C           3.71241         1.18532         0.04535
C           4.65140         2.01104         0.07469
C           5.01829         3.29419         0.09262
C           6.30419         3.17728         0.08866
C           7.36018         4.00581         0.08947
C           8.66132         3.56716         0.07069
C           8.91520         1.95182         0.06570
C           7.96190         0.85093         0.06031
C           7.76748        -0.59874         0.18519
C           6.54137        -0.04148         0.02144
C           8.99948         4.89661         0.09017
C           7.60061         5.27668         0.09798
H           2.37675        -0.85524         0.09027
H           2.68029         1.59507         0.06858
H           5.42362         1.35772         0.09912
H           4.38055         4.11406         0.09317
H           6.72817         2.23180         0.08377
H          10.04193         1.97504         0.11659
H           8.84693        -0.67368        -0.01500
H           9.89685         5.50469         0.10522
H           6.64960         5.85726         0.10770

