%chk=NdC1SC2dCCdC2CdCCdCCdC2SCdS12.chk
%NProcShared=20
# opt freq b3lyp/6-31g(2df,p)

Title Card Required 

0  1
N           1.25022         0.38929        -2.23759
C           2.41776        -0.07911        -2.69894
S           2.72164        -1.00728        -0.64834
C           4.56473        -0.57276         0.68578
C           5.43404        -0.59419         2.01479
C           7.28155        -0.50302         1.90364
C           5.40977         0.05720        -0.21280
C           4.42203         0.35284        -1.32965
C           5.05162         0.69700        -2.48588
C           4.32010         1.53039        -3.38416
C           4.60432         2.08845        -4.54432
C           3.26790         2.73132        -5.20381
C           3.20550         1.79853        -6.07546
S           2.66282         1.57626        -7.65800
C           4.18114         0.53225        -7.03320
S           2.83617        -0.07153        -5.23457
H           1.22906         0.16376        -1.10587
H           5.25842        -0.87220         3.07219
H           8.26675        -0.59760         2.29256
H           3.52709         0.97531        -1.22972
H           6.11673         0.59808        -2.66494
H           3.24934         1.64378        -3.31208
H           5.50558         1.60239        -5.01995
H           2.17540         2.36251        -5.17365
H           4.58902         1.45456        -8.02678

