%chk=NdC1SCdCCdCCdCCdc2ccccc2dC1NN.chk
%NProcShared=20
# opt freq b3lyp/6-31g(2df,p)

Title Card Required 

0  1
N           2.45603         0.25613        -0.20488
C           4.40985         0.66657        -0.23574
S           3.16435         1.64147        -0.87659
C           4.82941         1.32201        -0.78254
C           5.78904         2.21190        -1.33355
C           7.82209         1.52467        -1.47931
C           7.69899         2.65376        -1.70571
C           9.79817         1.82330        -1.41103
C          10.72714         2.77420        -1.58313
C          12.20536         2.79940        -1.44892
C          11.12958         3.51507        -1.57345
C          13.38560         3.75034        -1.81837
C          14.88950         4.75206        -1.99838
C          12.94542         5.24657        -2.13096
C          10.95817         4.43122        -1.71391
C           8.86302         2.88698        -0.80099
C           6.88798         1.51104        -0.26443
N           5.13480        -0.34021         0.28063
N           3.79936        -2.29930         0.87363
H           0.82764         0.66206        -0.40855
H           5.80395         0.37870        -0.49077
H           5.45921         3.10357        -1.55197
H           8.06658         0.74052        -0.52799
H           7.77321         3.67836        -1.87716
H          10.13314         1.23071        -0.65327
H           9.75878         4.09126        -2.17213
H          12.51548         2.04038        -1.06481
H          14.63601         2.85080        -1.69960
H          16.24134         4.74521        -1.72829
H          14.55739         6.22804        -2.50393
H          12.07547         5.59040        -2.66626
H           3.52818        -1.06101         0.44861
H           4.12319        -3.29680         1.46422
H           2.99260        -3.84617         0.95800

