%chk=NdC1CdC2CdCNdCCdC2CdCCdCSC1.chk
%NProcShared=20
# opt freq b3lyp/6-31g(2df,p)

Title Card Required 

0  1
N           0.66524         0.05656        -0.09197
C           1.92500         0.17057        -0.40586
C           3.04999         0.57645         0.87177
C           4.44010         0.56467         1.07494
C           5.08701         1.05761         2.34854
C           6.40706         1.17885         2.66640
N           7.58476         0.91255         2.05015
C           7.67153         0.40949         0.85275
C           6.65533        -0.00726        -0.06539
C           5.31021        -0.01235         0.02471
C           4.77180        -0.99593        -0.85933
C           5.14826        -1.51805        -2.04134
C           4.21438        -2.36918        -2.77746
C           3.79176        -1.84287        -3.93552
S           2.17056        -0.82883        -3.63324
C           2.43823        -0.24110        -1.86306
H           0.49552         0.27815         0.89802
H           2.45398         0.86425         1.75526
H           4.42836         1.39782         3.15101
H           6.64261         1.60382         3.64749
H           8.68188         0.19177         0.46316
H           7.11461        -0.50893        -0.90572
H           3.85388        -1.30631        -0.39649
H           6.05057        -1.20457        -2.54987
H           3.35225        -2.72337        -2.21159
H           4.58973        -1.61216        -4.67661
H           3.27499         0.41524        -2.03169
H           2.45541        -1.27625        -1.52989

