%chk=NdCc1ccc2c3ccccqn1rdCSC3dNCdCNdNNd2.chk
%NProcShared=20
# opt freq b3lyp/6-31g(2df,p)

Title Card Required 

0  1
N           1.66707         0.47729         0.12948
C           3.30952         1.04999         0.39288
C           4.94606         2.51209         1.06464
C           4.80800         1.01963         0.37988
C           5.01060         2.22911         0.93540
C           6.43888         2.43157         1.03389
C           7.87185         3.10031         1.33364
C           8.94226         2.52222         1.07110
C           9.16437         4.18388         1.84186
C          10.60228         3.95697         1.73326
C           8.82894         4.18822         1.84456
N           6.62812         3.76529         1.64241
C          10.58481         5.04831         2.23322
S           9.74717         6.61219         2.95541
C           7.63197         5.23020         2.31721
N           6.36289         5.54688         2.46448
C           5.09057         5.99145         2.67060
C           3.77086         5.58530         2.48328
N           2.70524         6.03653         2.69109
N           3.54695         4.63253         2.04424
N           5.15684         3.85987         1.69195
H           0.83458        -0.59102        -0.36251
H           3.10323        -0.37071        -0.26108
H           5.24747         0.18674        -0.00413
H           3.60127         2.95122         1.26952
H           9.88184         2.29781         0.96896
H           9.04153         5.42714         2.40947
H          11.49867         3.41477         1.48286
H          12.14994         4.92293         2.17811
H           5.15955         6.90370         3.09056
H           2.24252         4.91083         2.17231

