%chk=NdCSC1dNNdCC2NdCC2dC1.chk
%NProcShared=20
# opt freq b3lyp/6-31g(2df,p)

Title Card Required 

0  1
N           1.19790        -0.06460         0.04562
C           2.48755        -0.11986         0.01219
S           3.29096        -1.11881         1.20671
C           5.01356        -0.79672         0.90532
N           5.73717        -1.84930         0.73818
N           7.07887        -1.96913         0.38021
C           7.99362        -1.04924         0.37015
C           7.93191         0.40566         0.78721
N           8.21848         1.50904        -0.16749
C           7.26134         2.18843         0.34421
C           6.58078         0.99818         0.79661
C           5.32002         0.64371         0.90939
H           0.82729         0.54594        -0.69047
H           3.04165         0.46960        -0.73943
H           9.00617        -1.40438         0.10394
H           8.56213         0.56145         1.67218
H           6.82869         3.19677         0.30526
H           4.53640         1.38474         0.86572

