%chk=NN1NdCCdCCdCCdc2ccsc2dCC1dS.chk
%NProcShared=20
# opt freq b3lyp/6-31g(2df,p)

Title Card Required 

0  1
N           2.39724         0.07598         0.14904
N           4.35520         0.18430         0.02336
N           3.41872         0.95567        -0.99396
C           4.36039         1.41902        -1.55226
C           5.01556         2.15303        -2.41479
C           6.29049         2.04274        -2.27638
C           6.91220         2.81612        -3.17492
C           8.15552         2.86648        -3.23337
C           9.08041         3.47410        -3.94330
C          10.13750         2.98632        -3.36856
C          11.29292         3.83832        -4.37002
C          12.49422         3.49488        -3.95242
S          11.92805         2.12022        -2.35987
C           9.74600         1.75313        -1.91688
C           8.35275         0.96989        -0.97534
C           6.33381         0.34108        -0.17834
S           5.67612        -0.90793         1.14954
H           1.59476         0.51309        -0.62118
H           1.54512         0.28247         0.89068
H           5.13206         0.99929        -1.12672
H           4.41295         2.67222        -3.00815
H           6.73843         1.43626        -1.57763
H           6.45944         3.39878        -3.85704
H           8.29432         2.22664        -2.47954
H           8.89707         4.14860        -4.73231
H          11.16775         4.61068        -5.27937
H          13.50833         4.01025        -4.54545
H           9.43148         0.62865        -0.63538

