%chk=NNdc1ccc2cqcc1rdNNdCNdCCd2.chk
%NProcShared=20
# opt freq b3lyp/6-31g(2df,p)

Title Card Required 

0  1
N           1.12589        -0.17164        -0.19427
N           2.51718        -0.39206        -0.33961
C           3.41329        -1.25616        -0.90938
C           4.97578        -0.81226        -0.61668
C           6.07192        -1.48105        -1.05767
C           7.49019        -2.21120        -1.53911
C           6.77014        -3.30152        -2.25733
C           4.97030        -3.54801        -2.42060
C           3.63174        -2.79062        -1.92117
N           7.80958        -3.86356        -2.63006
N           8.83151        -4.45736        -3.01949
C           9.90936        -3.83317        -2.60861
N          10.75872        -4.68045        -3.16729
C          10.77727        -3.60526        -2.45833
C           9.14992        -2.39500        -1.66031
H           0.67158         0.63071         0.33479
H           0.41852        -0.77144        -0.58976
H           4.98638         0.06880        -0.03573
H           5.36665        -2.10781        -1.47094
H           5.44552        -4.43568        -3.00589
H           2.46894        -2.85810        -1.96567
H          10.66540        -2.51238        -1.73770
H          11.99247        -3.55752        -2.42685
H           9.20642        -1.43289        -1.02591

