%chk=NSC1dCCdCCdCCdCCdCSNCdCdC1.chk
%NProcShared=20
# opt freq b3lyp/6-31g(2df,p)

Title Card Required 

0  1
N           1.93388         0.73289        -0.09805
S           3.75861         2.53812        -0.48748
C           5.52642         4.70193        -0.94876
C           4.92515         2.81161        -0.53281
C           5.76201         3.63677        -0.71173
C           6.96853         3.45862        -0.67362
C           7.43199         4.65732        -0.93603
C           8.60459         5.06538        -1.02549
C           9.18433         6.27123        -1.28936
C          10.45142         6.51605        -1.34304
C          10.75593         7.84717        -1.63438
C          11.71253         7.17705        -1.48768
S          12.18967         8.90866        -1.86671
N          13.18906         9.83506        -2.06954
C          11.00710         9.35749        -1.96515
C           9.14590         8.07804        -1.68564
C           7.29892         6.56016        -1.35395
H           0.98819        -0.62619         0.23636
H           0.80374         0.39454        -0.83431
H           5.45550         1.26132        -0.19251
H           5.52412         2.58546        -0.48166
H           7.39034         2.65949        -0.49890
H           6.75852         5.36086        -1.08977
H           9.21555         4.36264        -0.87168
H           8.15223         7.42236        -1.54093
H          11.30390         5.53554        -1.12842
H           9.75183         9.28786        -1.94967
H          12.59110         7.53891        -1.56691
H          14.73546         9.37890        -1.96966
H          12.44932        10.54125        -2.22412
H           5.71895         5.98428        -1.22657

