%chk=OC1dCNdCCdNNdCCqOrdNCdCNdCc2ccccc2CdCCdCC1.chk
%NProcShared=20
# opt freq b3lyp/6-31g(2df,p)

Title Card Required 

0  1
O           3.29160        -0.94920        -1.19981
C           5.29299        -1.88449        -2.03070
C           3.74971        -1.49219        -0.87277
N           4.75413        -1.36449        -0.17293
C           5.40954        -2.62819        -0.39655
C           6.96677        -2.44213        -0.45550
N           7.56617        -3.47413        -0.91670
N           8.95096        -3.23654        -1.23005
C           9.56560        -4.28692        -1.64719
C          11.12049        -4.30338        -1.70039
O          11.78330        -3.19754        -1.28801
N          11.76294        -5.37412        -2.09471
C          13.17591        -5.39628        -2.12958
C          13.92079        -6.45812        -2.52723
N          15.33386        -6.45764        -2.54001
C          16.02730        -7.49968        -2.86999
C          17.50350        -7.52768        -2.93761
C          18.25442        -7.04684        -1.86243
C          19.59983        -6.77544        -1.96763
C          20.27820        -7.24617        -3.03693
C          19.56769        -7.99204        -4.00894
C          17.92989        -7.99085        -4.13922
C          15.98234        -7.94137        -5.14307
C          13.96583        -7.08802        -4.85976
C          11.76247        -5.92539        -4.33725
C           9.77226        -4.66281        -3.68064
C           7.60567        -3.14876        -2.80793
H           1.69836        -0.79879        -0.61133
H           2.62774        -2.17498        -0.80655
H           4.76741        -3.17865        -1.20120
H           7.37970        -1.34712        -0.50752
H           9.02608        -5.17951        -2.01646
H          11.29207        -2.41603        -0.98695
H          13.72378        -4.52887        -1.80440
H          13.36478        -7.32831        -2.87234
H          15.48634        -8.41841        -3.15291
H          17.76106        -6.86942        -0.93159
H          20.12474        -6.21150        -1.23307
H          21.31832        -7.02401        -3.11076
H          20.17838        -8.53572        -4.69802
H          17.53266        -8.70572        -5.86656
H          15.35127        -8.08739        -4.52123
H          12.83906        -7.06648        -5.25298
H          10.61316        -5.96277        -4.49875
H           6.61609        -1.74904        -2.13939
H           6.73474        -1.81553        -1.88291

