%chk=Odc1cccnc2c1C1dCCdCCdCC2dC1.chk
%NProcShared=20
# opt freq b3lyp/6-31g(2df,p)

Title Card Required 

0  1
O           5.21192        -2.18393        -0.68140
C           5.46564        -2.25825         0.46840
C           4.16540        -1.45823         1.18695
C           4.60966        -0.37632         1.78056
C           5.12300        -1.29084         2.86794
N           6.37514        -1.16832         3.13582
C           7.14822        -2.10575         2.54491
C           7.14389        -2.55243         1.26423
C           8.66596        -3.50025         1.46853
C          10.07984        -3.47022         1.18731
C          10.59407        -2.70104         0.13348
C          10.12348        -1.45644         0.24315
C           9.97979        -0.74978         1.55738
C           9.39345        -1.07857         2.75402
C           8.47311        -2.24563         3.16238
C           8.89232        -3.51348         2.93972
H           3.13167        -1.75813         1.47905
H           5.32088         0.10135         1.07177
H           4.62846        -2.32455         2.95261
H          11.01214        -3.60032         1.87269
H          10.76035        -3.39537        -0.68144
H           9.55025        -1.16913        -0.63159
H          10.56252         0.17368         1.52448
H           9.46780        -0.37402         3.58287
H           8.56963        -4.53143         3.16905

