%chk=Odc1cc2cqcnccc3nc1-3rCdC2.chk
%NProcShared=20
# opt freq b3lyp/6-31g(2df,p)

Title Card Required 

0  1
O           0.32960         1.09152        -1.22175
C           1.21768         1.68361        -1.88029
C           2.68945         1.01611        -1.13788
C           4.09116         1.03819        -1.16243
C           4.98915         1.79920        -2.00885
C           4.69058         2.66215        -2.96866
N           3.39514         2.76570        -3.08382
C           2.61645         3.40678        -3.79685
C           1.06779         3.04440        -3.39380
C           0.61728         3.89064        -4.33501
N          -0.61013         3.51332        -3.91535
C           0.57888         3.00830        -3.35365
C           6.12456         1.24114        -1.38816
C           5.31822         0.49403        -0.55720
H           2.76621         1.69497        -1.89292
H           5.30596         3.23969        -3.61101
H           2.88730         4.11981        -4.58991
H          -0.18621         2.25694        -2.51797
H           7.12952         1.52146        -1.69994
H           5.45734        -0.23191         0.25021

