%chk=OdC1CSC2dSqCd[SH]SS1rSSCdCCdN2.chk
%NProcShared=20
# opt freq b3lyp/6-31g(2df,p)

Title Card Required 

0  1
O           2.13729        -0.26943         0.15582
C           3.32036        -0.49133        -0.20292
C           3.65244        -0.38289        -1.83624
S           5.56909        -0.11791        -2.75888
C           7.03977        -0.91672        -4.24387
S           7.81852        -0.19753        -2.49704
C           8.01215        -1.78302        -1.56746
S           7.52103        -1.68083         0.22540
S           5.87256        -2.53685         1.01766
S           4.46164        -0.87470         1.15974
S           9.48594         0.62322        -3.12247
S          10.63740        -0.97352        -3.76425
C          10.04520        -1.38264        -5.99918
C          11.37581        -0.57564        -6.08688
C           9.61288        -0.02009        -6.31046
N           8.29686        -0.35133        -5.47756
H           3.07017         0.55944        -2.09447
H           3.05564        -1.22542        -2.19037
H           8.55346        -2.61586        -2.03191
H           6.46608        -1.18707        -0.36037
H           9.33548        -1.28143        -6.59320
H          12.31559        -0.56361        -5.56187
H          10.12011        -0.38181        -7.42871

