%chk=OdC1CdCCdCdCCd[SH]CNdNSSNdC1.chk
%NProcShared=20
# opt freq b3lyp/6-31g(2df,p)

Title Card Required 

0  1
O           4.46200        -1.48287         1.24178
C           5.15714        -1.76632         0.24442
C           4.17704        -1.14357        -1.00317
C           4.69256        -0.05289        -1.54229
C           5.30458        -0.57193        -2.75580
C           6.52560        -0.81824        -2.68174
C           7.85518        -0.82605        -2.54802
C           8.56344        -1.98751        -2.09450
S          10.31874        -1.83225        -2.31430
C          10.71654        -3.50712        -1.86769
N          12.15915        -3.64516        -1.80496
N          12.44720        -4.40253        -0.86495
S          12.17863        -3.59552         0.66485
S           9.74097        -3.51916         1.20759
N           8.41833        -2.15791         0.78761
C           6.99963        -1.80807         0.52974
H           3.09586        -1.24802        -1.37057
H           5.35098         0.46214        -0.83945
H           4.65696        -1.13665        -3.44676
H           8.37985         0.03846        -2.89073
H           8.02867        -2.85853        -1.67307
H          10.63077        -1.13145        -1.22907
H          10.33722        -4.37167        -2.40463
H          10.18510        -3.69796        -0.95756
H           7.03709        -0.88463         1.14366

