%chk=Odc1cnc2cqc3c1dCCdCSCdCS3rNd2.chk
%NProcShared=20
# opt freq b3lyp/6-31g(2df,p)

Title Card Required 

0  1
O           5.39676        -1.53376        -3.09725
C           7.29053        -1.93415        -3.95196
C           5.23778        -1.33078        -2.66394
N           4.88896        -0.63402        -1.17660
C           6.21258        -1.09653        -2.16390
C           7.26026        -1.27720        -2.54957
C           8.20319        -1.82559        -3.72020
C           9.45018        -2.54156        -5.24857
C          11.66779        -2.72599        -5.64226
C          13.28852        -3.28812        -6.84222
C          12.74638        -2.65846        -5.49810
S          10.79647        -3.30892        -6.88663
C          10.84824        -2.17709        -4.47054
C           9.48002        -1.89359        -3.86536
S           9.26878        -1.27581        -2.54660
N           5.96339        -1.98894        -4.06891
H           3.49106        -1.12438        -2.22336
H          13.24398        -3.16370        -6.57663
H          13.55824        -3.94090        -8.23570
H          14.14524        -2.65294        -5.48633
H          11.85073        -2.01671        -4.12818
H           8.21591        -2.45667        -5.06736

