%chk=Odc1ccc2cq[nH]1rdCCdCCdCCdCCdCCd2.chk
%NProcShared=20
# opt freq b3lyp/6-31g(2df,p)

Title Card Required 

0  1
O           1.06954         0.08105        -0.03998
C           2.27622        -0.03006        -0.04730
C           3.39608         0.85701        -0.19113
C           4.86625        -0.32810        -0.25272
C           5.50954        -2.60385        -0.23582
C           4.27011        -1.34023        -0.21835
N           2.94470        -1.19339         0.04838
C           4.69510        -2.61528        -0.55266
C           3.94465        -3.78097        -0.41293
C           4.24442        -4.98788        -0.76741
C           3.53994        -5.85488        -0.31153
C           4.18273        -6.65690        -1.08325
C           3.69389        -8.19558        -0.71782
C           5.22228        -7.99694        -1.17806
C           4.51937        -8.97440        -0.53948
C           5.51114        -7.27060        -0.25136
C           5.86160        -4.68625        -0.21609
H           2.60404         2.07431        -0.16546
H           5.00924         1.36580        -0.05076
H           2.53053        -2.01234         0.30234
H           5.68651        -3.41661        -1.41170
H           3.05538        -3.61314        -0.13454
H           5.62254        -5.64332        -1.19907
H           2.71006        -6.19578        -0.24522
H           5.93213        -6.68416        -1.47435
H           2.72883        -8.61444        -0.42212
H           6.20254        -9.34113        -1.31694
H           3.40579       -10.34711        -0.69068
H           5.18822        -9.11639        -0.66375
H           6.71326        -3.32411        -0.57086

