%chk=OdC1CdCC2dCCdNCdCCdCC1dCS2.chk
%NProcShared=20
# opt freq b3lyp/6-31g(2df,p)

Title Card Required 

0  1
O           1.96690         0.69584        -0.45472
C           3.06355         0.18822        -0.66585
C           3.10892        -1.24293        -0.19170
C           4.25402        -1.75485         0.02330
C           5.46975        -0.97259         0.08900
C           6.46152        -1.40389        -0.66460
C           7.71354        -0.69520        -0.54351
N           8.83286        -1.10779        -1.02989
C           9.54567         0.01587        -1.38031
C           8.96987         0.47778        -2.50176
C           7.45638         1.23718        -2.38520
C           6.04363         1.38709        -1.93654
C           4.48511         1.10951        -1.16126
C           4.59016         1.63696         0.07834
S           5.45043         0.48529         1.18413
H           2.17919        -1.82551         0.00698
H           4.37396        -2.83361         0.15446
H           6.39188        -2.20235        -1.41027
H           7.62990         0.34846        -0.17792
H           9.70286         0.77267        -0.60725
H           9.47480        -0.15124        -3.28722
H           8.01051         2.18379        -2.62355
H           5.68192         2.41059        -2.15212
H           4.95238         2.66683         0.14435

