%chk=OdC1Cdc2ccsc2dCCdCSCdCS1.chk
%NProcShared=20
# opt freq b3lyp/6-31g(2df,p)

Title Card Required 

0  1
O           0.31141        -0.01871         0.32877
C           1.34102        -0.01976        -0.40784
C           2.68780        -0.88505         0.26889
C           4.07161        -0.90442         0.41158
C           4.91821        -1.85805         1.24698
C           6.25276        -1.66121         1.12692
S           6.70783        -0.38941         0.05089
C           5.01558         0.02595        -0.21676
C           4.77573         1.19112        -0.79074
C           3.55375         1.89557        -0.61527
C           3.25303         2.98066        -1.29221
S           1.86916         3.88113        -0.87724
C           1.16769         3.56418        -2.41903
C           0.35060         2.48293        -2.43848
S           1.09226         0.68680        -2.19074
H           2.21660        -1.60830         0.95628
H           4.57690        -2.65708         1.89714
H           7.05877        -2.22149         1.60359
H           5.58711         1.75195        -1.24158
H           2.88912         1.55425         0.17127
H           3.81692         3.29128        -2.16117
H           1.09890         4.47899        -3.02733
H          -0.54242         2.66600        -3.07066

