%chk=OdC1CdC2CdNC3dCCdCCdCC3dCdNC2dC1.chk
%NProcShared=20
# opt freq b3lyp/6-31g(2df,p)

Title Card Required 

0  1
O           1.23606        -0.12736         0.06642
C           2.35489         0.25662         0.20928
C           2.89087         1.46205        -0.41555
C           4.17243         1.13008        -0.53061
C           5.29237         1.85382        -1.04436
N           5.19809         3.13667        -1.09035
C           6.36006         3.62517        -0.57680
C           7.48849         3.54870        -1.28540
C           8.76912         4.14661        -1.13239
C           9.06208         5.17512        -0.33970
C           8.19843         5.67418         0.71957
C           7.12279         5.07193         1.35149
C           6.36051         3.72368         0.89576
C           5.73700         2.56240         1.45368
N           5.18885         1.48284         1.71658
C           4.55150         0.46993         0.69525
C           3.54853        -0.47181         0.86676
H           2.41513         2.41530        -0.48471
H           6.26442         1.33004        -0.83277
H           7.43798         2.89474        -2.14298
H           9.47667         3.84082        -1.89640
H           9.99930         5.70416        -0.56358
H           8.54647         6.69459         0.97496
H           6.62792         5.80422         2.00488
H           3.41161        -1.41621         0.25558

