%chk=Odc1c2cqccccccc3c1dNCdN3rCdCCd2.chk
%NProcShared=20
# opt freq b3lyp/6-31g(2df,p)

Title Card Required 

0  1
O           1.54345         1.20992         2.52631
C           2.64344         1.47591         3.12821
C           2.83440         0.52607         0.97888
C           4.09728        -0.08172        -0.39646
C           5.29953         0.19405         0.22756
C           4.92977         0.69453         1.36008
C           5.62562         1.10268         2.28364
C           5.23749         1.59215         3.39123
C           5.50858         2.07999         4.49514
C           4.31868         2.32670         5.05339
C           4.68102         2.81295         6.15370
C           2.98840         2.39823         5.21526
N           3.04470         3.13913         6.89178
C           4.22330         3.71543         8.19587
N           5.09694         3.34021         7.34682
C           4.02149        -0.88842        -2.22189
C           5.04533        -0.61343        -1.59962
C           3.28608        -0.18581        -0.63200
H           6.29588         0.06929        -0.05475
H           4.09151         0.91540         1.85987
H           6.57888         1.06987         2.20941
H           4.31272         1.58366         3.37203
H           6.48696         2.15214         4.65840
H           3.45877         1.93165         4.15946
H           5.58538         4.01550         8.87488
H           4.55988        -1.33788        -3.23895
H           6.39701        -0.79546        -2.01154
H           2.37754        -0.64217        -1.66465

