%chk=OdC1CdC2CdCCdCCdCNdCCdC12.chk
%NProcShared=20
# opt freq b3lyp/6-31g(2df,p)

Title Card Required 

0  1
O           2.27989         1.41595        -0.00906
C           3.52378         1.31118         0.02924
C           3.90232        -0.10900        -0.02683
C           5.12323         0.39006        -0.03699
C           6.18907        -0.48274        -0.00859
C           7.10730         0.38644        -0.02092
C           8.42645         0.24929        -0.02667
C           8.93763         1.41514         0.10242
C          10.20933         1.82967         0.44472
C           9.86765         3.10622         0.51370
N           9.84169         3.88424        -0.49755
C           8.26995         4.07664        -0.70004
C           6.61632         3.30772        -0.00012
C           5.20732         2.11679        -0.19213
H           3.52441        -1.24577        -0.01009
H           6.38980        -1.51021         0.00510
H           6.79577         1.36310         0.02787
H           8.96351        -0.61266         0.03354
H           8.18671         2.16525         0.11501
H          10.97396         1.18812        -0.00138
H           9.53831         3.95545         1.12403
H           9.53907         4.85015        -0.60910
H           5.92960         4.10335        -0.01127

