%chk=Odc1ccc2cqnc1rdCCdCCdCCdCCdCCd2.chk
%NProcShared=20
# opt freq b3lyp/6-31g(2df,p)

Title Card Required 

0  1
O           1.23350        -0.03884        -0.06716
C           2.51676        -0.08424        -0.18934
C           3.62982        -0.64683        -1.70468
C           5.33575        -0.94334        -2.50565
C           7.13464        -1.43360        -3.83525
C           6.70013        -0.76649        -2.02669
N           5.95431        -0.13221        -0.31884
C           4.36811         0.17243         0.50197
C           7.62431        -1.22762        -3.26893
C           9.03472        -1.25039        -3.33028
C           9.94587        -1.56698        -4.17992
C          11.03542        -1.45716        -3.88743
C          11.29375        -1.83443        -4.94495
C          13.03282        -1.99848        -5.34831
C          11.97197        -2.46310        -6.59094
C          13.32554        -2.35493        -6.26178
C          11.29061        -2.38276        -6.25674
C           8.86770        -1.98550        -5.33076
H           2.52722        -0.80310        -2.12615
H           4.74577        -0.41130        -1.07060
H           3.31629         0.60053         1.65526
H           7.89970        -1.74146        -4.64102
H           9.39867        -0.94913        -2.51948
H           9.97520        -2.11142        -5.63859
H          11.79445        -1.32349        -3.52780
H          10.21468        -2.43122        -6.56058
H          13.85384        -1.76061        -4.70614
H          12.73938        -2.97508        -7.97294
H          15.05212        -2.28144        -6.11964
H          13.13869        -2.56052        -6.93791
H           7.06459        -1.99251        -5.33158

