%chk=OdC1CdCCdCSSC2dNSSS2dC1.chk
%NProcShared=20
# opt freq b3lyp/6-31g(2df,p)

Title Card Required 

0  1
O           3.40440         0.99449         0.88000
C           3.98418         1.65864         0.01145
C           3.19661         1.29345        -1.21375
C           4.20047         0.74933        -1.81110
C           4.94348         1.76094        -2.50874
C           6.22758         1.53293        -2.57170
S           7.18854         2.14634        -3.81019
S           8.83130         1.53935        -2.72587
C           9.13570         3.05561        -2.14556
N           9.95960         3.45796        -3.08650
S           9.87321         5.02805        -3.44339
S           7.80686         5.25718        -2.14179
S           7.58549         3.41477        -0.83256
C           5.87042         2.12059        -0.05332
H           2.39769         1.99740        -1.49900
H           4.80297        -0.01158        -1.24023
H           4.51348         2.77032        -2.60726
H           6.69989         0.91986        -1.77471
H           6.20788         1.20825         0.55516

