%chk=OdC1[C]dSdC[C]dCNSN1.chk
%NProcShared=20
# opt freq b3lyp/6-31g(2df,p)

Title Card Required 

0  1
O           2.84173         0.19051        -0.59260
C           3.52124        -0.18120         0.36417
C           2.61448        -0.57441         1.37631
S           3.46391        -1.03015         2.54938
C           4.23802        -1.51999         3.81021
C           5.51579        -1.37717         3.44260
C           6.77482        -1.45182         3.63474
N           7.56044        -1.06998         2.65188
S           6.86173        -0.44360         1.03958
N           5.03793        -0.15578         0.29875
H           3.70332        -1.84827         4.65522
H           6.84536        -1.84274         4.64097
H           8.55758        -1.19399         2.97110
H           5.18517         0.20772        -0.63691

