%chk=Odc1ccc2cqcc1rdCCdCNdCCdCCdCCd2.chk
%NProcShared=20
# opt freq b3lyp/6-31g(2df,p)

Title Card Required 

0  1
O           1.22970        -0.09041         0.09959
C           2.55732         0.01364         0.07382
C           3.60340         1.60669        -0.33066
C           5.30944         2.41338        -0.54078
C           7.03539         3.88937        -0.93849
C           6.74380         2.08450        -0.45104
C           6.13721         0.21477         0.02002
C           4.45741        -0.67041         0.24647
C           7.60713         3.27613        -0.75092
C           9.01054         3.32630        -0.76781
C          10.01495         4.20644        -0.98595
N          11.11803         3.79227        -0.88416
C          11.20445         4.90175        -1.24089
C          13.03397         5.31413        -1.84615
C          12.00507         6.65629        -1.16575
C          13.25526         6.30647        -1.56615
C          11.26298         6.26857        -1.56467
C           8.76608         5.28419        -1.31540
H           2.50069         2.05947        -0.44832
H           4.81513         0.93279        -0.15972
H           7.63995         0.63348        -0.08528
H           3.31601        -1.75477         0.52327
H           7.86509         4.64678        -1.05631
H           9.37647         2.48007        -0.55470
H           9.90029         5.74737        -1.38036
H          10.18027         6.67868        -1.63487
H          13.64040         4.77908        -0.76639
H          12.63848         8.05378        -1.90609
H          14.97933         6.14679        -1.48242
H          13.01279         6.94914        -1.85036
H           7.01992         5.34541        -1.29299

