%chk=Odc1ccc2cqs1rNdCCdCCdCSCdC2.chk
%NProcShared=20
# opt freq b3lyp/6-31g(2df,p)

Title Card Required 

0  1
O           1.01341         0.09025        -0.08085
C           2.20790         0.07668        -0.08992
C           3.37524         0.90364        -0.19027
C           4.85542        -0.06830         0.16343
C           5.50749        -2.13085         0.17757
C           4.32173        -1.41828         0.05291
S           2.69807        -1.43243         0.12655
N           4.69644        -2.56977        -0.18277
C           4.06198        -3.59357        -0.37048
C           4.92005        -4.82303        -1.24889
C           4.15409        -5.73698        -0.76738
C           5.98381        -6.46740        -1.17463
C           4.71224        -7.05965        -1.01645
S           5.53818        -8.70311        -0.64757
C           5.27587        -6.46410         0.44720
C           5.60969        -4.52447         0.46523
H           2.74112         1.99844        -0.56080
H           4.90529         1.49535         0.62528
H           3.10223        -3.59144        -0.20354
H           6.45249        -5.01021        -0.73891
H           3.15251        -6.22050        -0.52134
H           6.68356        -7.35701        -0.69221
H           3.60194        -8.11197        -0.77488
H           4.92717        -8.19813        -0.25573
H           6.40744        -3.16547        -0.11134

