%chk=Odc1cqdOrc2c1dCCdCCdCSCdCCd2.chk
%NProcShared=20
# opt freq b3lyp/6-31g(2df,p)

Title Card Required 

0  1
O           3.54163        -1.29346        -1.44968
C           4.60349        -1.29247        -2.50768
C           4.35165         0.00090        -0.98034
O           3.95180         1.18512        -0.27082
C           5.66137        -0.68508        -2.12973
C           6.48966        -1.82095        -3.63488
C           7.81016        -2.57922        -4.72111
C           9.74767        -3.44680        -5.34423
C          10.79633        -3.08922        -4.47478
C           9.60201        -3.87491        -3.74170
C           9.40602        -2.63576        -3.14876
S           7.97701        -3.14870        -2.27064
C           7.86594        -1.05710        -2.14821
C           6.73017        -0.96350        -1.41013
C           5.99194         0.30736        -1.37124
H           9.23579        -2.63054        -5.55106
H          10.84345        -4.56292        -5.69324
H          11.32930        -2.37359        -5.40827
H           9.80828        -4.93650        -4.38525
H           9.52613        -1.52445        -4.00313
H           7.78224        -0.26588        -3.07441
H           6.03472        -2.26065        -1.34326
H           6.05279         1.25108        -1.81656

