%chk=Odc1sc2[nH]c1dCCdc1sccc1dCSCd2.chk
%NProcShared=20
# opt freq b3lyp/6-31g(2df,p)

Title Card Required 

0  1
O           3.27715        -0.10593         0.36884
C           4.31992         0.77349         0.98447
S           2.92400         1.81013         0.16925
C           4.45268         1.15335        -0.44761
N           5.33947         0.30950         0.37268
C           6.30696         1.76816         1.05446
C           7.58647         2.98176         0.95172
C           9.41983         3.66798         0.40007
C          10.38601         2.68583         0.20018
S          12.05772         2.32389         0.13758
C          11.52783         0.68500         0.13315
C          10.22781         0.42096         0.12601
C           9.46676         1.55645         0.02394
C           8.15103         1.54229        -0.40316
S           7.17113         0.27713        -0.65638
C           5.47229         1.82407        -0.86899
H           5.32451        -0.91738         0.10805
H           8.78426         3.55755         0.01372
H           9.06495         4.97237         0.19013
H          12.26296        -0.05575         0.13058
H           9.61336        -0.42514         0.11631
H           7.17648         2.53749        -0.60522
H           5.15684         2.89447        -0.05689

