%chk=OdC1CdCCdNCdCSCdCCdCSCdC1.chk
%NProcShared=20
# opt freq b3lyp/6-31g(2df,p)

Title Card Required 

0  1
O           4.43743         0.62729         0.43249
C           6.17255         1.14325         0.81840
C           4.08866         1.31971         0.95039
C           5.41009         1.54870         1.12167
C           5.32746         2.60158         1.90918
N           6.55385         2.59323         1.90293
C           7.24390         3.40729         2.51182
C           8.47158         3.61331         2.66591
S           9.31493         4.69773         3.47702
C          10.78780         4.14310         3.06217
C          11.61725         5.18128         3.83869
C          13.14988         4.70486         3.48235
C          14.10665         5.32180         3.94379
S          12.66517         3.66897         2.70754
C          10.24389         2.69865         1.98178
C           8.47255         1.85668         1.35202
H           2.76410         1.83428         1.33527
H           5.54359         0.14951         0.07513
H           4.52731         3.06876         2.25861
H           6.66984         4.02554         2.97424
H           8.92290         2.96557         2.18143
H          11.53726         2.74420         2.01585
H          11.79118         5.99447         4.44692
H          14.25057         3.69248         2.72513
H          14.15732         6.43327         4.77513
H          11.93140         3.48341         2.56875
H           7.52521         1.06495         0.75984

