%chk=Odc1scccccc2cccccc1-2.chk
%NProcShared=20
# opt freq b3lyp/6-31g(2df,p)

Title Card Required 

0  1
O           4.96333        -1.75309        -1.59161
C           6.78882        -2.11737        -1.90935
S           4.27528        -1.75291        -1.59145
C           6.39322        -1.69056        -1.53707
C           6.40729        -3.13982        -2.80115
C           8.19996        -2.09967        -1.89391
C           7.49066        -3.22989        -2.87972
C           9.21773        -3.01568        -2.69287
C           9.38193        -4.20354        -3.72896
C          10.08476        -3.40485        -3.03232
C          10.28999        -4.90678        -4.34235
C          12.06547        -4.14848        -3.68094
C          12.77665        -5.17862        -4.57945
C          11.23711        -4.00994        -3.56010
C           9.15539        -3.23462        -2.88384
H           5.49004        -0.61367        -0.59777
H           5.11530        -2.97647        -2.65868
H           7.70955        -1.18877        -1.09939
H           7.37550        -4.02672        -3.57474
H           9.76767        -2.14165        -1.93052
H          11.67985        -2.98283        -2.66423
H          11.30246        -5.63342        -4.97614
H          13.73128        -4.10226        -3.64062
H          13.45503        -6.31831        -5.57352
H          12.83344        -4.87933        -4.31840

