%chk=OdC1CdNCdC2C1dCdCCdC1CdCCdNCdCCdCCdC12.chk
%NProcShared=20
# opt freq b3lyp/6-31g(2df,p)

Title Card Required 

0  1
O           1.03692        -0.15467        -0.05589
C           2.26375        -0.14323        -0.05648
C           3.08551        -1.25945        -0.05724
N           4.36394        -1.10137        -0.05625
C           5.05816         0.53905        -0.05842
C           4.73507         2.37908        -0.06891
C           3.03734         1.09461        -0.04934
C           1.56135         1.84396        -0.05023
C           1.97069         2.98452        -0.06075
C           2.90644         3.89890        -0.07089
C           4.16558         3.94178        -0.07617
C           4.79406         5.23781        -0.08716
C           3.90964         6.22972        -0.08984
C           4.75215         7.72499        -0.10399
N           3.98150         8.34118        -0.10358
C           6.21445         8.83289        -0.11607
C           4.65048         9.80288        -0.11549
C           5.39357        11.10229        -0.12647
C           4.96818         9.27870        -0.11189
C           5.61856         6.76116        -0.09885
C           5.37103         4.59351        -0.08476
H           2.47124        -2.13113        -0.05815
H           6.10145         0.02346        -0.05064
H           2.74871         2.46426        -0.06372
H           2.39569         4.73854        -0.07412
H           6.57192         5.84127        -0.09822
H           2.98742         6.33861        -0.08666
H           6.58753         7.58405        -0.10930
H           6.59768         9.98925        -0.12440
H           3.54173        10.95093        -0.11819
H           6.23560        12.33916        -0.13785
H           4.86499        11.12224        -0.12456
H           6.14697         4.93724        -0.09005

