%chk=OdC1CdCdCdc2cc3cccc-3ccc2dC1.chk
%NProcShared=20
# opt freq b3lyp/6-31g(2df,p)

Title Card Required 

0  1
O           2.11622         0.29368        -0.53778
C           3.19741         0.06018         0.01936
C           3.10121        -0.50525         1.37235
C           4.24338        -0.72861         1.90500
C           5.40654        -0.71074         1.85387
C           6.53784        -0.51864         1.26983
C           7.64856        -1.12528         2.07453
C           8.98987        -1.12416         2.07637
C           9.91122        -1.78099         3.03589
C          11.16669        -1.49564         2.64181
C          11.05705        -0.64637         1.43561
C           9.74652        -0.43341         1.06937
C           9.11179         0.36393        -0.03499
C           7.81735         0.63391        -0.53504
C           6.29016         0.17511        -0.08576
C           4.85210         0.38212        -0.60555
H           2.22395        -0.72343         1.94953
H           7.24986        -1.69736         2.90717
H           9.66769        -2.39203         3.89772
H          12.09552        -1.83544         3.11483
H          11.99351        -0.30631         1.00001
H           9.96622         0.87648        -0.49359
H           7.83333         1.43496        -1.27439
H           4.43464         0.83110        -1.55905

