%chk=OdC1CdCd[SH]CdNCdCdCSCdC1.chk
%NProcShared=20
# opt freq b3lyp/6-31g(2df,p)

Title Card Required 

0  1
O           4.10060         0.96569         0.89611
C           4.86944         0.87382        -0.06459
C           4.02269         0.37096        -1.38539
C           4.84119        -0.10781        -2.17854
S           6.43227        -0.09305        -2.23281
C           6.49987         1.96351        -2.17957
N           7.65177         2.49578        -2.41982
C           7.96440         3.76275        -1.91430
C           9.21897         3.97283        -1.64750
C          10.36226         3.52336        -1.25786
S           9.98233         1.65131        -1.21852
C           8.29063         1.41059        -0.01001
C           6.76184         1.15991         0.18803
H           2.91235         0.36111        -1.64610
H           6.69293        -0.71877        -3.30791
H           5.70339         2.55090        -1.64598
H           7.28048         4.38881        -1.37302
H          11.26892         4.21291        -1.14526
H           9.04674         1.47176         0.77388
H           6.51526         0.94836         1.24527

