%chk=OdC1CCSCCSCdCCdC[SH]d[SH]1.chk
%NProcShared=20
# opt freq b3lyp/6-31g(2df,p)

Title Card Required 

0  1
O           4.20785         0.08242         0.11768
C           5.42878        -0.65104         0.85425
C           3.58024        -1.23492         1.31382
C           5.05631        -1.13041         1.12944
S           5.16507        -2.49076         2.39730
C           6.84808        -2.24530         2.34606
C           7.97727        -3.01488         2.78406
S           9.44894        -3.27633         1.20229
C          10.37687        -4.13060         2.68277
C          11.72720        -3.93606         2.69228
C          12.23311        -4.23636         3.96799
C          12.01766        -2.73077         3.85068
S           9.97947        -1.42521         2.89640
S           8.07159        -0.64211         1.51809
H           2.90159        -2.06283         0.76631
H           2.88451        -0.75260         2.09565
H           4.94832         0.53004         1.43827
H           4.92320        -1.43817        -0.41539
H           7.00692        -1.00115         3.02317
H           7.15681        -2.52406         1.07470
H           7.65723        -3.94017         2.47335
H           7.91293        -2.48104         3.77030
H           9.99120        -4.19385         3.86505
H          12.45773        -2.87495         2.16900
H          12.19470        -4.95817         4.94368
H          13.45293        -3.18147         3.74203
H          10.71418        -2.43734         4.12816
H           7.00032        -0.70467         0.24745

