%chk=OdCC1dC2CdCCdCN2NdCNNCdCCdCCdC1.chk
%NProcShared=20
# opt freq b3lyp/6-31g(2df,p)

Title Card Required 

0  1
O           0.42364         0.04158         0.02601
C           1.43767        -0.17242        -0.62195
C           1.47764        -0.50421        -2.26467
C           3.21687        -0.35754        -1.89441
C           4.38786        -0.12618        -0.46252
C           5.82622        -0.04733        -0.32296
C           6.74437        -0.08573        -1.42228
C           6.03322        -0.15018        -2.55358
N           4.54092        -0.21550        -2.83248
N           4.32077        -0.24573        -4.11913
C           3.15637         0.22971        -4.30882
N           2.47980        -0.11556        -5.38705
N           1.20906        -0.02331        -5.52210
C           0.45406        -0.06426        -6.59841
C          -0.71019         0.52805        -6.44453
C          -1.71391         0.02767        -7.25396
C          -2.47847        -0.27301        -6.13865
C          -1.53971        -0.90936        -4.56063
C          -0.12852        -0.71511        -3.41697
H           2.37285        -0.08956         0.06106
H           4.12628        -0.00502         0.59446
H           6.47771         0.04506         0.61570
H           7.87782        -0.05903        -1.35385
H           6.66481        -0.16757        -3.45279
H           2.59793         0.81792        -3.54764
H           3.02466        -0.37837        -6.17028
H           0.72650         0.56166        -4.84169
H           0.77026        -0.47269        -7.53147
H          -1.07442         0.89465        -5.39508
H          -1.64721        -0.21430        -8.36790
H          -3.68205        -0.31416        -6.40916
H          -2.16750        -1.44232        -5.66482
H           0.74383        -1.05475        -3.95292

