%chk=OdCC1dCCdc2ccc1c1nncnc2dCCdNNdC1.chk
%NProcShared=20
# opt freq b3lyp/6-31g(2df,p)

Title Card Required 

0  1
O           1.68304        -0.07629         0.00419
C           3.14739        -0.06788        -0.26770
C           5.14380        -0.94708        -0.52891
C           4.15664         0.12885         0.76085
C           5.12976         1.16094         2.01282
C           6.61438         0.72401         1.31506
C           7.65801         1.23001         2.08046
C           8.22307         0.28132         0.54865
C           7.55245        -1.11581        -1.28330
C           7.96296        -1.87066        -2.96669
N           7.01725        -2.78961        -4.45710
N           7.53705        -3.59486        -5.73073
C           7.31325        -2.70981        -4.12926
N           6.39789        -1.93245        -2.35707
C           6.58126        -0.37595        -0.52222
C           6.34730         0.39573         0.70105
C           6.84042        -0.18308        -0.35426
N           5.98776        -0.56464        -1.97335
N           7.62271        -1.65500        -2.97096
C           5.98738        -2.30873        -3.77305
H           2.70066        -0.66835        -0.95152
H           4.60905         0.24805        -0.00507
H           4.63873         1.78052         3.00077
H           6.99114         2.00476         3.36595
H           8.77715         1.04824         1.81138
H           6.65264        -3.53171        -5.62929
H           5.66767         0.21812         0.33020
H           8.58200        -0.41116        -0.55807
H           4.95646        -2.29399        -3.64000

