%chk=OdCNC1dc2ccncc2dCCdCCdNOS1.chk
%NProcShared=20
# opt freq b3lyp/6-31g(2df,p)

Title Card Required 

0  1
O           1.49895         1.51926        -1.42984
C           2.50690         0.94657        -0.99194
N           3.20619         1.28306         0.15244
C           4.07259         0.39248         0.79200
C           4.85635         0.79525         1.91310
C           6.39494         0.82683         1.91822
C           7.11927         1.36756         2.93793
N           6.62759         2.11429         3.97595
C           5.35323         2.32122         3.96105
C           4.35615         1.68963         3.03112
C           3.10030         1.88286         3.46762
C           2.06951         1.08665         2.92793
C           0.79641         1.32094         2.62581
C           0.40699         0.12791         1.81755
N           0.50737         0.04986         0.53108
O           1.39897        -1.04912         0.11754
S           2.97814        -1.29432         0.90192
H           2.87981         0.02326        -1.46399
H           2.84548         2.06193         0.68984
H           6.98721         0.48481         1.07356
H           8.21478         1.33438         2.96852
H           4.94865         2.99465         4.73979
H           2.83719         2.53430         4.28752
H           2.47297         0.11817         2.69526
H           0.26689         2.20580         2.93189
H           0.66672        -0.81003         2.30269

