%chk=OdCqOrC1dNCdCCdCCdCCdCCdCCdC2NdC21.chk
%NProcShared=20
# opt freq b3lyp/6-31g(2df,p)

Title Card Required 

0  1
O           3.11133        -0.48882        -1.28334
C           4.67284        -0.70746        -1.92275
O           3.81854        -0.11102        -0.17850
C           6.39094        -1.32500        -3.72867
N           5.73309        -0.77320        -2.11500
C           5.51825        -1.17420        -3.28767
C           6.92670        -0.81846        -2.24736
C           7.93325        -1.33232        -3.75009
C           9.06601        -1.25201        -3.51522
C           9.76461        -1.61266        -4.56989
C          10.93486        -1.54024        -4.35814
C          11.43948        -1.91266        -5.44720
C          12.84750        -2.00355        -5.71303
C          13.40443        -2.51574        -7.21089
C          14.79395        -2.55611        -7.32894
C          12.81959        -2.60765        -7.47971
C          10.89417        -2.31197        -6.61509
N          10.02357        -2.09301        -5.97458
C           8.52984        -1.87041        -5.32384
H           3.98723         0.29359         1.00475
H           4.44702        -1.24497        -3.49463
H           7.20311        -0.50112        -1.31931
H           6.95216        -1.73748        -4.93493
H           9.21074        -0.95959        -2.66007
H           8.94893        -2.21355        -6.32716
H          11.57509        -1.35025        -3.80251
H          10.08064        -2.48641        -7.12505
H          13.56929        -1.78873        -5.08482
H          12.89942        -3.05116        -8.77669
H          15.52437        -2.29746        -6.57255
H          14.22263        -3.00668        -8.64663

