%chk=OdCqOrC1dCCdCCdCCdC1S[SH]dS.chk
%NProcShared=20
# opt freq b3lyp/6-31g(2df,p)

Title Card Required 

0  1
O           1.03340        -0.22926         0.02181
C           2.25404        -0.36266        -0.01706
O           2.95714        -0.19728        -1.15412
C           3.08726        -0.69624         1.17574
C           2.63180        -1.86870         1.64689
C           3.04163        -2.88847         2.56736
C           4.12898        -3.12155         3.29447
C           5.28560        -2.34452         3.58648
C           5.66265        -1.10581         3.27592
C           5.17414        -0.02807         2.44498
C           4.16684         0.20009         1.56825
S           4.36581         1.77416         0.67571
S           2.58375         2.74131         0.32884
S           2.97416         3.51138        -1.45900
H           3.88875         0.07421        -1.01469
H           1.68926        -2.22336         1.20658
H           2.31488        -3.70824         2.59364
H           4.15052        -4.09512         3.79688
H           5.96787        -2.89286         4.24738
H           6.59995        -0.82236         3.77099
H           5.88906         0.79528         2.56696
H           1.66978         1.83841         0.01839

