%chk=Sc1ccc2cccccc[c]ccc1-2.chk
%NProcShared=20
# opt freq b3lyp/6-31g(2df,p)

Title Card Required 

0  2
S           1.80314         0.30146         0.05933
C           4.08023         0.75637         0.22094
C           3.86972        -1.04590         0.05578
C           5.13445        -0.95106         0.05769
C           5.36158         0.40565        -0.02674
C           6.43115         1.07061        -0.39420
C           7.60741         0.40358        -0.33633
C           8.45265         1.35409        -0.76973
C           9.67031         0.75908        -0.68706
C          10.11771         2.20061        -0.96759
C          11.09422         1.16658        -0.46418
C          11.58000         2.07765         0.22054
C           9.72153         2.02387         1.10231
C           7.88349         1.98559         1.12393
C           5.66314         1.60576         0.59039
H           0.79718        -1.16021         0.04661
H           3.44609        -2.10911         0.05574
H           5.99410        -1.46129         0.03672
H           6.83009         2.50022        -0.57261
H           7.65811        -0.57838         0.03591
H           8.48237         2.81713        -0.33968
H          10.08096        -0.20801         0.00518
H          10.66141         3.31296        -0.23300
H          12.10965         0.43428        -0.13885
H          11.43116         2.00044         0.94197
H           6.46025         2.54649         0.77713

