%chk=SCC1dCC2dCCdCC2dCCdCCdCSN1.chk
%NProcShared=20
# opt freq b3lyp/6-31g(2df,p)

Title Card Required 

0  1
S           1.11790         0.11379        -0.12335
C           2.89162        -0.13308         0.23850
C           3.80990         0.00770        -0.98824
C           4.51252         1.16281        -1.17406
C           5.00167         1.75292        -2.43443
C           4.55574         2.95090        -2.89110
C           5.15019         3.27132        -4.18400
C           5.96491         2.28055        -4.55632
C           5.93998         1.28638        -3.49620
C           6.73135         0.22692        -3.55296
C           6.88895        -0.63265        -2.42588
C           7.56087        -1.74485        -2.23765
C           7.16211        -2.39899        -0.98198
C           6.11711        -3.20229        -1.23011
S           4.39940        -2.71657        -1.04180
N           4.04597        -1.14851        -1.80610
H           0.64833        -0.53715         0.96411
H           2.94826        -1.14900         0.61193
H           3.14807         0.54521         1.05937
H           5.32054         1.23552        -0.42454
H           3.84571         3.60589        -2.40599
H           4.96917         4.17258        -4.75032
H           6.58428         2.21977        -5.43803
H           7.33269        -0.01037        -4.42472
H           6.27118        -0.33593        -1.59126
H           8.11005        -2.24548        -3.03397
H           7.01149        -1.64945        -0.19534
H           6.41149        -4.10667        -1.78279
H           3.18660        -1.21371        -2.36686

