%chk=Sdc1ccccc2cccccccc-2c1.chk
%NProcShared=20
# opt freq b3lyp/6-31g(2df,p)

Title Card Required 

0  1
S           2.36187         0.06253        -0.31063
C           4.74219         0.06094        -0.95078
C           3.40910         0.05924        -1.63865
C           4.70309         0.05857        -1.91066
C           5.45464         0.05567        -3.08205
C           6.90450         0.05475        -3.45451
C           7.68657         0.05256        -4.34073
C           8.98480         0.05314        -4.10592
C           9.03879         0.04960        -5.53419
C           9.81373         0.05161        -4.72316
C          10.73130         0.04685        -6.64859
C          11.86770         0.04983        -5.44246
C          12.34798         0.04670        -6.70893
C          11.15984         0.05086        -5.02766
C           8.86496         0.05479        -3.43953
C           7.07697         0.05851        -1.93470
H           2.74172         0.05739        -2.38493
H           6.04002         0.06012        -1.28231
H           4.81629         0.05396        -3.77420
H           8.23501         0.05790        -2.17916
H          10.03377         0.05645        -2.76821
H           9.06206         0.04740        -6.42364
H          11.37329         0.05397        -3.76951
H          11.20678         0.04418        -7.72825
H          13.59020         0.04994        -5.39850
H          13.15642         0.04273        -8.31473
H          12.74186         0.04783        -6.25169
H           5.67512         0.06227        -0.41530

