%chk=Sdc1[c]c2cqccc1rCdCC1dCCdCCdCC1dN2.chk
%NProcShared=20
# opt freq b3lyp/6-31g(2df,p)

Title Card Required 

0  2
S           1.28597         1.00610         0.12950
C           2.93678         0.66388         0.27830
C           4.03025         1.81817         0.55119
C           5.36133         2.11530         0.63425
C           6.04321         0.83623         0.26908
C           5.71367        -0.46491         0.14349
C           4.53765        -1.26321         0.18165
C           3.28544        -0.82583         0.16729
C           7.32226         0.99682        -0.28684
C           7.39337         2.11327        -1.00135
C           8.39457         2.89794        -0.41025
C           9.51729         2.63653        -1.01452
C          10.84652         3.15170        -0.99358
C          11.21476         4.17011        -0.27302
C          10.35325         4.89654         0.68493
C           9.02340         4.79247         1.10465
C           7.70185         3.69369         0.68773
N           6.34296         3.41756         1.06393
H           6.54027        -1.13563        -0.10258
H           4.72174        -2.34078         0.08633
H           2.51019        -1.60627         0.07971
H           8.12957         0.52698         0.27148
H           6.57179         2.75603        -1.33992
H           9.48404         1.81688        -1.73579
H          11.50790         2.65214        -1.70991
H          12.26681         4.47604        -0.43404
H          11.03234         5.65882         1.11158
H           8.79970         5.55194         1.86276

