%chk=SdC1SCdCCdCCdCCdCCdCd[SH]SS1.chk
%NProcShared=20
# opt freq b3lyp/6-31g(2df,p)

Title Card Required 

0  1
S           5.20731        -1.47735         0.70707
C           6.46346        -0.71908         2.09470
S           4.68538         0.47315         1.89540
C           5.54373         1.43471         0.77960
C           6.24740         2.03380         1.74038
C           7.61438         1.97828         1.49172
C           8.50953         2.26997         2.41880
C           9.87842         2.15972         2.03018
C          10.79741         2.74397         2.78611
C          12.17131         2.70586         2.38531
C          13.12824         3.27196         3.12751
C          14.49151         2.69784         2.97890
C          14.45763         1.89943         3.98928
S          13.30050         0.98666         4.67939
S          11.00388        -0.02445         3.61439
S           8.81639        -0.50417         2.36913
H           5.99960         0.92205        -0.11546
H           5.85269         2.07539         2.79094
H           7.88231         1.47959         0.56006
H           8.18872         2.43343         3.44671
H          10.22041         1.41150         1.28867
H          10.49674         2.96528         3.81682
H          12.53720         1.94714         1.68893
H          12.78886         3.54494         4.17175
H          14.87187         1.93522         2.27995
H          13.91190         2.05164         5.53222

