%chk=SdC1[C]dCNdCCdCCdCNdCCdC1.chk
%NProcShared=20
# opt freq b3lyp/6-31g(2df,p)

Title Card Required 

0  2
S           2.93862         0.53935         0.07897
C           5.17782         1.64843         0.07532
C           3.46705         1.67958         0.07522
C           4.85781         1.58221         0.07554
N           5.36944         3.16346         0.07033
C           6.49814         3.09367         0.07056
C           7.04172         4.36183         0.06638
C           8.11142         3.97028         0.06767
C           9.27938         5.27537         0.06337
C          11.02309         4.25184         0.06674
N          10.92611         6.37181         0.05975
C          11.35686         5.14355         0.06380
C           9.55819         3.59062         0.06892
C           7.69315         2.40516         0.07283
H           6.08872         0.86843         0.07789
H           7.95555         1.44848         0.07598
H           6.94156         5.21584         0.06356
H           9.10440         2.41077         0.07281
H           9.11608         6.34032         0.05986
H          12.00615         3.90883         0.06787
H          13.07356         5.50323         0.06262
H          10.49381         5.24278         0.06347
H           7.16237         0.75001         0.07828

