%chk=SdC1CCdCCdCCdCCdCCdCCdC1SS.chk
%NProcShared=20
# opt freq b3lyp/6-31g(2df,p)

Title Card Required 

0  1
S           3.82159        -0.07318         0.04342
C           6.07618         0.53783         0.68936
C           3.92820         0.87377         1.01107
C           5.53303         0.81755         0.94413
C           5.74121         1.76348         1.91781
C           6.98756         1.63781         1.78853
C           7.97150         2.10216         2.26740
C           9.22811         1.92488         2.10910
C          10.04877         2.57053         2.75329
C          11.18717         2.27854         2.45112
C          12.10957         3.09745         3.28802
C          13.41234         2.82575         3.00257
C          12.65822         1.84991         1.89687
C          10.64724         0.99226         1.07592
C           8.47226         0.39366         0.45140
S           7.15208        -1.16976        -1.09400
S           4.79834        -2.43341        -2.37608
H           3.15156         0.62086         2.06043
H           3.15179         1.93008         0.78153
H           6.27536        -0.26886        -0.17022
H           5.17323         2.27424         2.44360
H           7.78867         1.32477         1.46924
H           7.70036         2.72306         2.90286
H           9.30199         1.12230         1.36374
H          10.02333         3.24965         3.44096
H          11.84156         1.07095         1.14898
H          12.41919         3.81233         4.01859
H          14.41559         2.08124         2.24675
H          13.75784         2.80038         2.96659
H          12.21500         1.56736         1.90982
H           3.58933        -3.56829        -3.53822

