%chk=Sdc1ccnc2cc1[SH]dCS[SH]2S.chk
%NProcShared=20
# opt freq b3lyp/6-31g(2df,p)

Title Card Required 

0  1
S           4.67903         2.55449         0.70890
C           5.31770         2.31943        -0.85671
C           4.40553         1.42164        -1.79740
C           4.91665         0.15402        -1.87968
N           6.06101        -0.02799        -2.57503
C           7.05395         0.64144        -1.99617
C           7.30495         1.97612        -2.50171
C           6.82304         2.73814        -1.49415
S           8.36673         3.64521        -1.02261
C           9.55296         2.27031        -1.13571
S           9.35969         1.21226         0.20742
S           7.88176        -0.02159        -0.58996
S           6.70646        -0.53352         1.06503
H           3.31438         1.45189        -1.69730
H           4.98662        -0.39921        -0.93775
H           6.97983         1.99432        -3.53823
H           9.08615         4.37931        -0.17572
H          10.22107         2.01448        -1.98028
H           8.53456        -1.06847        -1.08290
H           5.89133         0.54038         1.15751

