%chk=SdCc1cccc2cccc-2cc1dS.chk
%NProcShared=20
# opt freq b3lyp/6-31g(2df,p)

Title Card Required 

0  1
S           1.56479        -0.18993         0.60019
C           3.23547         0.05537         0.52268
C           4.49344        -0.35516         1.40647
C           5.19546        -1.08622         0.54647
C           5.79303        -2.31147         1.01606
C           7.08333        -2.31254         1.17498
C           7.49941        -2.75522         2.47748
C           7.38363        -3.90350         3.14782
C           8.23080        -3.82320         4.32084
C           8.54692        -2.51237         4.48670
C           7.69846        -1.72198         3.47757
C           6.58520        -0.84617         3.57829
C           4.87830        -0.77866         2.93303
S           3.61554        -1.30014         3.95060
H           3.52008         0.49114        -0.46843
H           5.51749        -0.62637        -0.38155
H           5.19618        -2.88548         1.75613
H           7.68389        -1.47633         0.77731
H           6.82458        -4.78210         2.86766
H           8.76979        -4.71103         4.66041
H           9.59292        -2.34160         4.79668
H           6.95858         0.10487         3.15914

