%chk=SdCC1SCdCCdCCdNSSSNSCS1.chk
%NProcShared=20
# opt freq b3lyp/6-31g(2df,p)

Title Card Required 

0  1
S           3.16397         0.30622        -0.93130
C           5.42850         0.77656        -1.67865
C           7.47036         1.46569        -2.91251
S           6.03975         0.34013        -1.21587
C           6.84591         0.01692        -2.77393
C           8.03285        -0.27353        -2.37486
C           8.40626         0.26274        -3.95886
C           9.63407         0.03198        -3.75329
C          10.44978         0.10478        -5.42023
N          11.84785         0.43674        -5.29548
S          12.25270         0.91722        -6.81509
S          14.33501         0.13655        -6.00784
S          15.25134         1.02329        -8.26484
N          16.55041         0.58181        -7.42721
S          15.39358         2.15455        -7.19900
C          13.15262         2.19614        -5.52941
S          10.39149         1.95549        -4.23858
H           4.26209         0.19008        -0.37047
H           5.76965         0.91708        -2.62541
H           5.70480         0.50094        -3.77119
H           8.08128         0.23423        -1.37887
H           7.71977         0.78989        -4.70670
H          10.12549         0.43014        -2.81072
H           9.78637         0.99049        -6.06851
H          17.58379         0.54538        -7.29435
H          14.88541         2.35307        -6.27994
H          14.94025         2.06125        -6.14614

