%chk=SN1CdCC2dCCdNC2dCCdCCdCNdC1.chk
%NProcShared=20
# opt freq b3lyp/6-31g(2df,p)

Title Card Required 

0  1
S           1.75889        -0.85040         0.06080
N           3.44954        -1.00078        -0.51874
C           3.87052         0.32729        -0.83475
C           5.03637         0.95401        -0.61380
C           5.60397         1.97855        -1.51025
C           5.24328         3.27018        -1.55712
C           6.14605         3.80844        -2.57773
N           6.96295         2.97398        -3.12742
C           6.68790         1.77936        -2.52599
C           7.34992         0.67224        -2.89902
C           7.04599        -0.58315        -2.36465
C           7.52036        -1.83181        -2.46145
C           6.64524        -2.53263        -1.61405
C           6.00450        -3.58366        -1.12351
N           5.08775        -3.24338        -0.10639
C           4.21428        -2.23406         0.02605
H           1.25860         0.26766        -0.55596
H           3.10280         0.93270        -1.34707
H           5.75218         0.41869        -0.00060
H           4.51804         3.82571        -0.99682
H           6.12117         4.87225        -2.84118
H           8.11822         0.67173        -3.65130
H           6.15517        -0.49488        -1.76410
H           8.31701        -2.13050        -3.12374
H           6.52163        -1.88286        -0.74808
H           6.52385        -4.54232        -1.30032
H           3.90764        -2.22575         1.08583

