%chk=SSC1dCCdCCdCd[SH]SC2dCqS1rS2.chk
%NProcShared=20
# opt freq b3lyp/6-31g(2df,p)

Title Card Required 

0  1
S           1.73311         0.57785         0.45548
S           3.57955         1.28910         1.80055
C           5.32029         2.57456         2.08344
C           5.88931         1.37599         1.97637
C           5.89391         0.78468         3.30016
C           7.19339         0.62973         3.38718
C           7.85286         1.05666         4.51772
C           9.06882         1.25708         4.27131
S          10.48684         1.37881         4.91817
S           9.54238         2.32615         6.72038
C           9.15497         3.75660         5.84572
C           8.36722         4.00066         4.66581
S           6.54307         3.55040         3.75198
S          10.34445         4.37820         4.81504
H           1.15924        -0.28131        -0.71194
H           5.75093         0.55840         1.23267
H           5.21404         1.16766         4.10239
H           7.76910         0.81816         2.45476
H           7.40300         1.59375         5.36540
H          10.75695         2.48201         4.21254

