%chk=CC1[C][N]CC2CCCSC2dCCdC1.chk
%NProcShared=20
# opt freq b3lyp/6-31g(2df,p)

Title Card Required 

0  2
C           1.61387         0.11082        -0.04400
C           3.41932         0.47333        -0.00642
C           3.06823         1.45014        -0.94250
N           3.41477         2.60370        -1.63915
C           4.67231         2.31927        -2.37588
C           6.36271         1.66113        -2.03091
C           7.09105         0.37937        -2.22541
C           6.62443         0.03521        -3.56143
C           7.20173         1.02608        -4.59298
S           6.96687         2.86056        -4.37306
C           6.94261         2.76886        -2.69230
C           6.72718         3.61869        -1.57057
C           5.79771         2.91371        -0.20081
C           5.02329         1.44834         0.11978
H           1.01200         0.93973         0.36600
H           1.28190        -0.79069         0.51265
H           1.17252        -0.08200        -1.05795
H           3.35114         0.38156         1.08167
H           4.81657         3.42585        -2.36508
H           4.40224         2.06191        -3.37587
H           7.01160         1.71623        -1.09512
H           6.85577        -0.29396        -1.38816
H           8.19828         0.51562        -2.13947
H           5.53010         0.08329        -3.51697
H           6.95546        -0.98245        -3.71618
H           6.84950         0.70043        -5.56896
H           8.29042         0.98932        -4.52894
H           7.10068         4.61559        -1.86792
H           6.71900         3.10952         0.35652
H           5.32240         0.61932        -0.57058

