%chk=CC1CCCCCC1dC1CCqCrC1C.chk
%NProcShared=20
# opt freq b3lyp/6-31g(2df,p)

Title Card Required 

0  1
C           0.87475         0.04698         0.11313
C           2.39968         0.11402         0.00463
C           2.94006        -1.24663        -0.47153
C           4.46860        -1.35508        -0.47974
C           5.08245        -0.57860        -1.64145
C           5.42820         0.86735        -1.28681
C           4.38127         1.61997        -0.45367
C           2.94425         1.28119        -0.83142
C           2.27171         1.94228        -1.79716
C           0.89565         1.77612        -2.45542
C           1.58528         2.41582        -3.68642
C           2.16227         1.41952        -4.69814
C           2.59347         3.12565        -2.72438
C           3.99907         3.29984        -3.25832
H           0.57166        -0.74503         0.80566
H           0.40797        -0.19309        -0.84262
H           0.46715         0.99266         0.48515
H           2.74476         0.26298         1.03809
H           2.55194        -1.46827        -1.47448
H           2.55089        -2.03231         0.18805
H           4.73413        -2.41283        -0.58923
H           4.88911        -1.02940         0.47981
H           4.40605        -0.59544        -2.50636
H           5.99829        -1.08105        -1.97436
H           5.62963         1.40003        -2.21984
H           6.37992         0.88383        -0.74197
H           4.56018         2.69859        -0.51419
H           4.54909         1.38493         0.60525
H           0.08742         2.37604        -2.02105
H           0.51936         0.77179        -2.66270
H           0.92858         3.11579        -4.22001
H           2.82156         0.68622        -4.21952
H           2.74460         1.94852        -5.45966
H           1.36526         0.86915        -5.20570
H           2.21093         4.08821        -2.35523
H           4.40745         2.36539        -3.65131
H           4.67228         3.66973        -2.48122
H           4.01297         4.02827        -4.07383

