%chk=CC1CC1CPCCCCqCrqCrC.chk
%NProcShared=20
# opt freq b3lyp/6-31g(2df,p)

Title Card Required 

0  1
C           1.06923         0.00972        -0.11858
C           2.56188        -0.00992        -0.10354
C           3.32364        -0.76260        -1.16055
C           3.33551         0.74241        -1.15985
C           4.57541         1.52134        -0.79715
P           4.23898         3.31858        -1.03428
C           5.79909         4.13026        -0.46781
C           5.56287         5.63934        -0.52762
C           6.79675         6.47457        -0.18000
C           6.53889         8.00611        -0.25708
C           6.12558         8.42191        -1.68112
C           5.44055         8.42462         0.73713
C           7.83498         8.75078         0.10820
H           0.67644        -0.59953         0.70100
H           0.66278        -0.38608        -1.05552
H           0.69888         1.03144         0.00977
H           2.95088        -0.01716         0.91018
H           2.76457        -1.24538        -1.95811
H           4.21930        -1.29845        -0.87047
H           2.78791         1.19973        -1.98180
H           5.39528         1.22816        -1.46106
H           4.89530         1.31742         0.23183
H           3.43697         3.55337         0.10749
H           6.62350         3.85462        -1.13330
H           6.06303         3.82543         0.55005
H           4.74348         5.88974         0.15567
H           5.22796         5.89911        -1.53831
H           7.61366         6.20752        -0.86351
H           7.13707         6.20941         0.82950
H           5.17983         7.96358        -1.98664
H           6.88977         8.13205        -2.41130
H           5.98558         9.50570        -1.75301
H           4.47522         7.96588         0.50135
H           5.28450         9.50841         0.72305
H           5.70807         8.13581         1.75991
H           8.64668         8.49771        -0.58273
H           8.16530         8.49915         1.12194
H           7.68923         9.83650         0.06598

