%chk=CC1CCqCrqCrOO1.chk
%NProcShared=20
# opt freq b3lyp/6-31g(2df,p)

Title Card Required 

0  1
C           1.10072        -0.01681        -0.03302
C           2.61708         0.03035        -0.00666
C           3.15553         1.17702         0.80610
C           4.54647         0.68300         1.13101
C           5.08800         1.31492         2.41151
C           5.54647         0.90689        -0.00517
O           4.38745        -0.72959         1.32433
O           3.13577        -1.13299         0.64233
H           0.68945         0.87887        -0.50881
H           0.68792        -0.10043         0.97752
H           0.75515        -0.89674        -0.58657
H           2.99633         0.04682        -1.03339
H           2.56951         1.27810         1.72802
H           3.12978         2.13597         0.28032
H           5.20918         2.39755         2.29651
H           6.06089         0.88523         2.67705
H           4.42516         1.12765         3.26296
H           5.69365         1.97470        -0.19674
H           5.22504         0.42930        -0.93609
H           6.51659         0.46134         0.24298

