%chk=CC1CCCNqCrCqCrCC1.chk
%NProcShared=20
# opt freq b3lyp/6-31g(2df,p)

Title Card Required 

0  1
C           0.89052         0.01283        -0.21581
C           2.41611        -0.02137        -0.22889
C           3.05916        -1.26996        -0.83084
C           4.51456        -1.50044        -0.36310
C           4.82271        -1.21687         1.13021
N           5.49734         0.06237         1.42367
C           6.12551         0.02773         2.74977
C           4.72470         1.31555         1.25368
C           3.55864         1.53007         2.25123
C           4.41902         1.60067        -0.23961
C           3.00606         1.29947        -0.74109
H           0.50955        -0.86033         0.33127
H           0.44108         0.05109        -1.20162
H           0.56119         0.89172         0.35970
H           2.61083        -0.12316         0.80588
H           3.01778        -1.25426        -1.92291
H           2.47314        -2.14401        -0.51322
H           5.21134        -0.95494        -1.00910
H           4.74875        -2.55622        -0.56105
H           5.51035        -2.01918         1.43130
H           3.94086        -1.36528         1.76479
H           6.80394        -0.82637         2.84472
H           5.38915        -0.03244         3.55787
H           6.74041         0.92219         2.90727
H           5.42890         2.12187         1.50602
H           2.89841         0.67166         2.39053
H           2.93752         2.38075         1.95389
H           3.93468         1.72749         3.25837
H           5.15719         1.10333        -0.88141
H           4.61673         2.66580        -0.43365
H           2.99456         1.33065        -1.83509
H           2.36996         2.13322        -0.41617

