%chk=CC1dCCdCCqNrdC2CdCCdCCqNrdCC12N.chk
%NProcShared=20
# opt freq b3lyp/6-31g(2df,p)

Title Card Required 

0  1
C           1.13231        -0.15514        -0.18502
C           2.80514        -0.40945        -0.49594
C           3.20766         0.91359        -0.24622
C           4.49166         1.51576        -0.12778
C           5.58476         0.78343        -0.11352
C           5.77117        -0.61272         0.07580
N           7.07726        -0.92492         0.17118
C           4.94962        -1.64231         0.31320
C           5.12117        -2.89998         1.06858
C           6.25928        -3.53470         1.10474
C           6.25859        -4.95766         1.02069
C           7.11758        -4.90335         0.03556
C           6.17506        -4.84678        -1.27253
N           7.50423        -6.01607        -1.26600
C           4.89522        -3.58815        -1.17722
C           3.74849        -2.10863        -0.33647
N           2.91527        -2.11484         1.22275
H           0.80100         0.92984        -0.11498
H           0.71320        -0.49999         0.77968
H           0.55372        -0.52710        -1.01800
H           2.51494         1.79088        -0.08484
H           4.63309         2.60751        -0.07324
H           6.52074         1.32094        -0.05905
H           7.84864        -0.35507        -0.09538
H           7.16529        -1.80746        -0.27161
H           4.25893        -3.64547         0.97154
H           6.93135        -3.10428         0.35885
H           5.38075        -5.53893         0.64380
H           8.15766        -4.41539         0.02912
H           7.61259        -6.76545        -0.43073
H           8.53899        -5.77352        -0.99691
H           4.13864        -3.62607        -1.97291
H           1.99608        -1.68302         1.23490
H           3.39733        -1.31767         1.72888

