%chk=CCC1qCrCCCCCC1CqCrC1CCCqCrC1.chk
%NProcShared=20
# opt freq b3lyp/6-31g(2df,p)

Title Card Required 

0  1
C           0.81858         0.00179        -0.28363
C           2.35465         0.05313        -0.27111
C           3.07577         1.46270        -0.38003
C           4.64706         1.42924        -0.20305
C           2.90995         1.81493        -1.87473
C           3.46190         3.15628        -2.32791
C           2.57099         4.28482        -1.85940
C           2.88578         4.82867        -0.47225
C           3.18786         3.84760         0.66016
C           2.41987         2.49920         0.62792
C           2.17415         1.94111         2.10933
C           1.34325         2.97705         2.91909
C           3.45531         1.46520         2.86132
C           3.23964         1.03055         4.31866
C           2.73107        -0.41826         4.25122
C           3.28779        -0.99173         2.95884
C           4.17505        -2.22337         2.97091
C           4.11281         0.15303         2.40228
H           0.49962        -1.01381        -0.00491
H           0.39328         0.23409        -1.25384
H           0.35380         0.66202         0.45670
H           2.73254        -0.62351        -1.05474
H           2.60774        -0.44933         0.62675
H           5.08754         0.51244        -0.60282
H           4.99898         1.58663         0.81630
H           5.17210         2.25303        -0.68661
H           1.85334         1.74614        -2.16240
H           3.41988         1.03139        -2.45748
H           3.49128         3.13439        -3.42186
H           4.49781         3.34447        -2.03357
H           1.52187         3.96780        -1.89798
H           2.66838         5.10772        -2.57417
H           2.03505         5.45103        -0.16804
H           3.74116         5.51278        -0.54566
H           2.98752         4.40013         1.58129
H           4.26655         3.68403         0.71276
H           1.41357         2.72199         0.24140
H           1.50559         1.07914         2.05352
H           1.90100         3.88619         3.16000
H           0.99146         2.56710         3.86975
H           0.44245         3.27137         2.36606
H           4.17998         2.28747         2.82755
H           2.59045         1.68312         4.90034
H           4.21807         1.03236         4.81646
H           1.63577        -0.39894         4.17863
H           3.00784        -1.00563         5.12641
H           2.42160        -1.24671         2.33793
H           5.09658        -2.04500         3.53155
H           4.47094        -2.46493         1.93751
H           3.65831        -3.09205         3.37764
H           4.25714        -0.05899         1.35717
H           5.13800         0.13874         2.79286

