%chk=CCC1CCCdCCqCrqCrCC1qCrN.chk
%NProcShared=20
# opt freq b3lyp/6-31g(2df,p)

Title Card Required 

0  1
C           0.98403        -0.39899         0.26107
C           2.47497        -0.24081         0.04356
C           2.94255         0.98214        -0.78690
C           4.38983         0.71648        -1.32001
C           5.06505         1.94158        -1.95180
C           5.11407         3.08095        -0.98031
C           4.10423         3.89372        -0.57892
C           2.64349         3.99272        -1.02940
C           2.44028         5.44992        -1.48809
C           1.69295         3.80330         0.18955
C           2.26895         3.07813        -2.23893
C           1.98961         1.57513        -1.91816
C           2.13578         0.69563        -3.17374
N           0.54282         1.64435        -1.65423
H           0.75639        -1.17458         0.99315
H           0.51915        -0.72652        -0.67074
H           0.52602         0.52516         0.62875
H           2.87041        -1.16462        -0.38493
H           2.93108        -0.14740         1.04224
H           3.09491         1.71606        -0.00080
H           4.37496        -0.10860        -2.04220
H           5.02258         0.36237        -0.49514
H           4.61005         2.23068        -2.89840
H           6.08640         1.67687        -2.25446
H           6.07298         3.19905        -0.48304
H           4.35872         4.57985         0.22736
H           2.65510         6.15047        -0.67309
H           1.40244         5.62029        -1.79883
H           3.09163         5.69471        -2.33278
H           1.95860         4.45932         1.02305
H           1.68996         2.79964         0.61994
H           0.65470         4.01971        -0.08758
H           2.99187         3.19994        -3.05145
H           1.37049         3.50166        -2.72173
H           3.13123         0.77733        -3.61977
H           1.42955         0.96691        -3.96196
H           1.98143        -0.36015        -2.91737
H           0.33832         2.04977        -0.74837
H           0.07786         0.74876        -1.71091

