%chk=CCC1COCCCqCNqCrCrCC1NO.chk
%NProcShared=20
# opt freq b3lyp/6-31g(2df,p)

Title Card Required 

0  1
C           0.50947         0.08410         0.06257
C           1.98659         0.18560        -0.19411
C           2.54258        -0.69305        -1.31672
C           1.54164        -1.59748        -2.07075
O           2.14244        -2.74510        -2.68343
C           2.76801        -3.67615        -1.79747
C           4.26257        -3.74667        -2.12095
C           5.06916        -2.45862        -1.75611
C           5.18716        -2.34369        -0.16366
N           6.02760        -1.27854         0.44770
C           6.04530        -0.12347        -0.40883
C           5.44414        -0.80854         1.72324
C           4.60999        -1.25333        -2.72689
C           3.59476        -0.09846        -2.29518
N           4.20770         1.26765        -2.20333
O           4.05512         2.08484        -1.00868
H           0.23985         0.78970         0.85236
H           0.22741        -0.91845         0.39122
H          -0.02821         0.35437        -0.84829
H           2.50127        -0.09423         0.73718
H           2.17655         1.23907        -0.34800
H           3.09173        -1.39865        -0.73273
H           1.07912        -1.01729        -2.87657
H           0.74039        -1.96455        -1.42881
H           2.32055        -4.65921        -1.98411
H           2.58399        -3.45645        -0.74070
H           4.37704        -3.93587        -3.19840
H           4.70864        -4.61360        -1.61656
H           6.09714        -2.68747        -2.07975
H           5.59273        -3.29593         0.20523
H           4.19828        -2.34140         0.30286
H           6.49142        -0.30662        -1.38451
H           6.50198         0.78304        -0.00808
H           4.99727         0.07518        -0.48842
H           5.57113        -1.53908         2.52078
H           4.37707        -0.56919         1.63394
H           5.92866         0.12453         2.04440
H           4.15025        -1.72373        -3.61159
H           5.50839        -0.81181        -3.18019
H           3.03261         0.08531        -3.22080
H           5.20212         1.30068        -2.41197
H           4.05471         1.54000        -0.21511

