%chk=CCC1CCCCCCN2CCqC1rON2.chk
%NProcShared=20
# opt freq b3lyp/6-31g(2df,p)

Title Card Required 

0  1
C           0.85902        -0.14446         0.11109
C           2.35709        -0.01012        -0.03874
C           2.84244         0.96594        -1.13154
C           3.46780         0.23279        -2.35092
C           4.94536         0.61533        -2.56919
C           5.22600         1.17730        -3.96820
C           5.95660         2.52464        -3.91187
C           5.11047         3.70075        -4.41927
C           4.78355         4.71319        -3.30076
N           3.60240         4.23644        -2.59723
C           3.64676         3.90312        -1.19429
C           2.17584         3.47638        -1.04682
C           1.84879         2.07048        -1.60025
O           1.45649         4.48192        -1.81730
N           2.48539         5.11453        -2.66225
H           0.61890        -0.93174         0.83023
H           0.39258        -0.39127        -0.84596
H           0.43066         0.78620         0.49773
H           2.80329        -1.00137        -0.18338
H           2.75522         0.33583         0.92639
H           3.66612         1.44594        -0.60579
H           2.88223         0.42859        -3.25479
H           3.42167        -0.85379        -2.22025
H           5.56143        -0.28259        -2.42964
H           5.29853         1.30549        -1.79799
H           4.31360         1.24906        -4.56779
H           5.86700         0.46085        -4.49900
H           6.85553         2.45398        -4.53728
H           6.32948         2.73420        -2.90385
H           4.19010         3.35841        -4.91280
H           5.67740         4.21484        -5.20651
H           4.60469         5.68295        -3.77584
H           5.64350         4.84044        -2.63653
H           3.82907         4.77902        -0.54957
H           4.38723         3.16211        -0.93006
H           1.82006         3.55787        -0.01762
H           1.79360         2.11513        -2.69603
H           0.81136         1.84474        -1.32921
H           2.65683         5.97588        -2.12084

