%chk=CCC1qCrCCOCCCC1CqCrC.chk
%NProcShared=20
# opt freq b3lyp/6-31g(2df,p)

Title Card Required 

0  1
C           0.67890        -0.00864        -0.14416
C           2.18793        -0.02848        -0.24552
C           2.95286        -1.35221        -0.53292
C           2.78873        -2.11167         0.81622
C           2.25132        -2.13071        -1.68992
C           2.74165        -3.54381        -2.05600
O           3.11149        -4.32253        -0.93164
C           4.50216        -4.51364        -0.66176
C           5.35883        -3.29433        -0.27454
C           5.35290        -2.19779        -1.32245
C           4.45371        -0.95993        -1.00233
C           5.25328         0.12384        -0.14717
C           6.64406         0.43063        -0.74945
C           4.64062         1.53997        -0.02724
H           0.38144         0.96103         0.27279
H           0.29526        -0.77958         0.53231
H           0.21842        -0.11338        -1.12306
H           2.51150         0.29656         0.74338
H           2.46050         0.72764        -0.99385
H           1.73100        -2.23394         1.06584
H           3.28011        -1.58718         1.63608
H           3.14971        -3.13586         0.86533
H           2.26524        -1.51889        -2.60349
H           1.18778        -2.23475        -1.43704
H           3.50818        -3.54742        -2.83583
H           1.89223        -4.05681        -2.52473
H           4.96033        -5.03879        -1.50553
H           4.53418        -5.19975         0.19220
H           6.38676        -3.64874        -0.12837
H           5.10909        -2.87799         0.70655
H           5.10642        -2.60426        -2.30507
H           6.39057        -1.91030        -1.49174
H           4.32398        -0.47299        -1.98433
H           5.38938        -0.28273         0.86004
H           6.54179         0.82199        -1.76963
H           7.31983        -0.42262        -0.76321
H           7.15981         1.19199        -0.15355
H           4.37309         1.94326        -1.01091
H           5.35425         2.23605         0.42767
H           3.78403         1.61845         0.63522

