%chk=CCCCCCqOrCCqCCrSCCN.chk
%NProcShared=20
# opt freq b3lyp/6-31g(2df,p)

Title Card Required 

0  1
C           0.88448        -0.00748        -0.12049
C           2.39675        -0.00266        -0.08573
C           2.86498         0.89586         1.04756
C           4.37050         0.88378         1.13113
C           4.84730         1.79673         2.27074
C           6.34219         1.98771         2.10333
O           6.40691         2.63878         0.84218
C           7.02010         2.82912         3.18047
C           8.57754         2.81083         3.14201
C           9.20737         3.28717         1.81608
C           9.15666         2.31560         0.63696
S           9.07704         3.93351         4.55107
C          10.90791         3.87495         4.50217
C          11.47715         4.78961         5.59925
N          12.94298         4.80210         5.58945
H           0.52236        -0.66481        -0.91328
H           0.50384         1.00320        -0.30026
H           0.48531        -0.35808         0.83657
H           2.79231         0.35477        -1.04503
H           2.77453        -1.02137         0.06009
H           2.44567         0.56688         2.00361
H           2.52197         1.92279         0.86787
H           4.75760         1.21221         0.15678
H           4.75588        -0.13251         1.28110
H           4.57619         1.38139         3.24572
H           4.35531         2.77419         2.17008
H           6.82977         1.00230         2.04388
H           6.43654         3.61128         0.96817
H           6.68602         2.46967         4.16297
H           6.67022         3.86548         3.07618
H           8.93462         1.80467         3.39285
H          10.27756         3.44788         1.96151
H           8.78076         4.25594         1.53025
H           9.45297         1.30667         0.92915
H           9.79498         2.67815        -0.17215
H           8.20041         2.22288         0.14595
H          11.27265         4.23628         3.53795
H          11.24502         2.84381         4.64998
H          11.13602         4.46618         6.58897
H          11.13110         5.81873         5.44523
H          13.29690         3.87204         5.80916
H          13.27279         5.41192         6.33844

