%chk=CCCCCqCCCCrCCqOrOCCC.chk
%NProcShared=20
# opt freq b3lyp/6-31g(2df,p)

Title Card Required 

0  1
C           0.94942         0.24004         0.00427
C           2.47604         0.35789         0.07681
C           3.02589        -1.01426         0.39744
C           4.52941        -1.23375         0.31311
C           4.96256        -2.71209         0.56383
C           4.40244        -3.73234        -0.46934
C           2.90405        -3.92500        -0.51801
C           2.42120        -4.94327        -1.52836
C           0.89934        -4.85040        -1.54063
C           6.52125        -2.76712         0.59033
C           7.09338        -4.15313         0.92000
O           6.77550        -5.10593        -0.07342
O           8.51080        -4.10838         1.00554
C           8.99997        -5.41719         1.31000
C          10.51205        -5.41615         1.28516
C          11.02123        -6.81209         1.59242
H           0.49644         1.19669        -0.25882
H           0.53793        -0.10102         0.96060
H           0.64246        -0.49331        -0.75565
H           2.78859         1.09424         0.81655
H           2.84629         0.66474        -0.90934
H           2.59094        -1.53345        -0.42647
H           2.61511        -1.42427         1.32748
H           5.01327        -0.58186         1.04984
H           4.88651        -0.92332        -0.67608
H           4.60795        -3.00406         1.56238
H           4.74314        -4.73206        -0.21185
H           4.79368        -3.48649        -1.46360
H           2.43087        -3.05509        -0.92183
H           2.51197        -4.12030         0.48658
H           2.76864        -5.94937        -1.28623
H           2.80724        -4.67089        -2.51903
H           0.49448        -5.09571        -0.55290
H           0.47153        -5.51882        -2.28632
H           0.57414        -3.82724        -1.77649
H           6.90249        -2.04631         1.32643
H           6.91175        -2.43507        -0.38122
H           6.68511        -4.48486         1.88483
H           6.97847        -4.67459        -0.92842
H           8.65553        -6.14358         0.56299
H           8.62202        -5.72400         2.29188
H          10.89483        -4.69020         2.00921
H          10.86360        -5.09168         0.29833
H          10.66860        -7.14330         2.57493
H          12.11287        -6.83191         1.58874
H          10.66038        -7.53041         0.84728

