%chk=CCCC1CNCCqCqCrCrCO1.chk
%NProcShared=20
# opt freq b3lyp/6-31g(2df,p)

Title Card Required 

0  1
C           0.94515         0.00837         0.03742
C           2.45820        -0.00069         0.06439
C           3.08523        -0.51240        -1.23847
C           4.63545        -0.48349        -1.26167
C           5.22341         0.44510        -0.17536
N           6.68875         0.47382        -0.06908
C           7.12363        -0.78681         0.54637
C           7.53125        -1.82545        -0.50473
C           8.93473        -1.52752        -1.11225
C          10.03471        -1.45963        -0.04261
C           9.34474        -2.57519        -2.15259
C           6.46257        -1.97451        -1.61107
O           5.11805        -1.83687        -1.13110
H           0.56893         0.40562         0.98620
H           0.54968        -1.00103        -0.09635
H           0.57474         0.64885        -0.76826
H           2.79427        -0.61699         0.90573
H           2.77655         1.03123         0.25228
H           2.72378         0.12402        -2.05693
H           2.72100        -1.52631        -1.44805
H           4.92277        -0.11278        -2.25530
H           4.83882         0.16363         0.81158
H           4.88123         1.46782        -0.36762
H           6.93293         1.23790         0.55220
H           6.36600        -1.21387         1.21558
H           7.95045        -0.55338         1.22133
H           7.58538        -2.78861         0.02268
H           8.89689        -0.55253        -1.61579
H          10.10069        -2.40185         0.51183
H           9.87209        -0.65266         0.67602
H          11.00861        -1.26247        -0.50168
H           9.40171        -3.57207        -1.70273
H          10.32694        -2.33432        -2.57264
H           8.64209        -2.61640        -2.98955
H           6.53661        -2.97911        -2.04365
H           6.65059        -1.27732        -2.43837

