%chk=CCCCCCqCrCCCCCqCCrCCC.chk
%NProcShared=20
# opt freq b3lyp/6-31g(2df,p)

Title Card Required 

0  1
C           0.88431         0.01156        -0.10543
C           2.39724         0.01185        -0.08168
C           2.90745         0.56889         1.24176
C           4.42163         0.57317         1.22974
C           4.99485         1.16900         2.50653
C           6.52607         1.20310         2.44051
C           7.02832         2.03641         1.25559
C           7.07739         1.76595         3.74427
C           8.60447         1.79978         3.71556
C           9.08672         2.35062         5.02425
C          10.58972         2.31376         5.17475
C          11.04072         2.83595         6.55278
C          10.52456         1.98549         7.74765
C           9.03018         1.98773         8.05153
C          12.58968         2.88012         6.54562
C          13.18072         3.47489         7.82369
C          14.69639         3.47854         7.79706
H           0.52113        -0.39459        -1.05273
H           0.49810         1.02953         0.00666
H           0.48828        -0.59996         0.71090
H           2.77725         0.61628        -0.91506
H           2.77282        -1.00798        -0.22745
H           2.53971        -0.03183         2.08082
H           2.54019         1.59311         1.38115
H           4.73673         1.15965         0.36233
H           4.80819        -0.44419         1.09387
H           4.66924         0.56907         3.36789
H           4.60029         2.18100         2.66274
H           6.89052         0.17335         2.33092
H           6.70152         3.07654         1.35545
H           6.68479         1.64568         0.29815
H           8.11737         2.02273         1.17963
H           6.73575         1.14183         4.58604
H           6.67926         2.77122         3.93141
H           8.99692         2.43876         2.91851
H           8.98717         0.78544         3.56349
H           8.63637         1.67702         5.74101
H           8.69803         3.35655         5.20028
H          11.03617         2.92936         4.37770
H          10.95772         1.29352         5.02005
H          10.67508         3.86495         6.66645
H          10.97211         2.37230         8.66522
H          10.87225         0.95297         7.63429
H           8.59043         2.97917         7.90748
H           8.85931         1.67865         9.08584
H           8.47896         1.24441         7.47330
H          12.93253         3.47818         5.68918
H          12.98348         1.86711         6.39254
H          12.88400         2.89081         8.69815
H          12.80476         4.49421         7.96487
H          15.08124         2.45947         7.68756
H          15.07996         3.88536         8.73775
H          15.07676         4.08785         6.97323

