%chk=CCCCCCCCCCCdCCqCrCCC.chk
%NProcShared=20
# opt freq b3lyp/6-31g(2df,p)

Title Card Required 

0  1
C           1.06841        -0.00212        -0.02459
C           2.58472         0.00375        -0.03004
C           3.10933         1.05066        -1.00275
C           4.62979         1.05860        -1.01012
C           5.14378         2.10657        -1.98377
C           6.66250         2.11282        -1.98948
C           7.17591         3.15976        -2.96216
C           8.69450         3.16326        -2.96607
C           9.21106         4.20726        -3.94000
C          10.73336         4.20491        -3.94959
C          11.24223         5.21983        -4.91531
C          12.55151         5.44903        -5.10482
C          13.05495         6.51690        -6.04158
C          12.51295         7.88995        -5.62433
C          14.59223         6.50994        -6.06986
C          15.15284         7.53775        -7.05194
C          16.66701         7.53105        -7.05275
H           0.69485        -0.75470         0.67465
H           0.67875        -0.23266        -1.02128
H           0.67875         0.97496         0.27847
H           2.95555        -0.98816        -0.31365
H           2.95555         0.21380         0.98000
H           2.73680         2.04306        -0.72006
H           2.73680         0.84157        -2.01321
H           5.00767         0.06946        -1.29647
H           5.00767         1.27158        -0.00262
H           4.76887         3.09751        -1.69931
H           4.76891         1.89557        -2.99293
H           7.03887         1.12277        -2.27497
H           7.03890         2.32479        -0.98116
H           6.80046         4.15036        -2.67730
H           6.80015         2.94823        -3.97088
H           9.06861         2.17215        -3.25033
H           9.06973         3.37595        -1.95757
H           8.83501         5.19868        -3.65440
H           8.82725         3.99684        -4.94681
H          11.09929         3.21154        -4.23290
H          11.10454         4.43394        -2.94313
H          10.51179         5.80685        -5.46686
H          13.27672         4.85580        -4.55219
H          12.69468         6.27857        -7.05159
H          12.87851         8.16527        -4.62863
H          11.41918         7.90776        -5.60123
H          12.80942         8.67228        -6.32686
H          14.95108         5.51018        -6.35172
H          14.98443         6.70913        -5.06352
H          14.83112         8.54758        -6.78171
H          14.77468         7.33214        -8.05999
H          17.05051         7.76776        -6.05510
H          17.04050         8.28656        -7.74988
H          17.05412         6.55425        -7.35432

