%chk=CCCCCCCCCCqCCrCqCrCC.chk
%NProcShared=20
# opt freq b3lyp/6-31g(2df,p)

Title Card Required 

0  1
C           0.91441        -0.03758         0.09707
C           2.43014        -0.03339         0.09578
C           2.94959         1.36367        -0.19620
C           4.46685         1.38464        -0.19451
C           4.93708         2.79912        -0.47206
C           6.44218         2.86158        -0.44081
C           6.89667         4.29392        -0.67661
C           8.40406         4.27363        -0.69691
C           9.02134         5.59599        -1.07557
C          10.56970         5.56649        -1.11369
C          11.13181         4.58681        -2.19492
C          10.90122         3.08847        -2.01407
C          11.10528         7.03073        -1.34796
C          10.57208         8.01687        -0.28872
C          12.65067         7.08852        -1.37035
C          13.20923         8.46880        -1.68296
H           0.53939        -1.04199         0.30746
H           0.52585         0.28134        -0.87551
H           0.52635         0.64444         0.86066
H           2.80234        -0.73480        -0.65984
H           2.80187        -0.37307         1.06936
H           2.57459         2.06779         0.55752
H           2.57961         1.70756        -1.17014
H           4.85953         0.69973        -0.95722
H           4.85119         1.04485         0.77501
H           4.52938         3.48748         0.27820
H           4.57613         3.12983        -1.45321
H           6.85248         2.19973        -1.21893
H           6.82824         2.49595         0.51831
H           6.51761         4.96672         0.10294
H           6.51693         4.64910        -1.64118
H           8.62691         3.54534        -1.46462
H           8.80980         3.91116         0.25172
H           8.66418         6.30698        -0.32297
H           8.63542         5.93610        -2.04271
H          10.93161         5.23162        -0.13220
H          12.22006         4.66969        -2.21432
H          10.77267         4.89135        -3.18428
H          11.00667         2.78775        -0.96744
H          11.62280         2.52186        -2.60970
H           9.93873         2.75759        -2.40616
H          10.73836         7.36625        -2.32760
H          10.89644         7.72234         0.71477
H           9.48289         8.09366        -0.29229
H          10.91404         9.03797        -0.47465
H          13.05040         6.42987        -2.14513
H          13.04835         6.73534        -0.41151
H          12.83046         8.82440        -2.64643
H          14.30067         8.42410        -1.73952
H          12.95588         9.20066        -0.91316

