%chk=CCCCCqCCC1CC1CrOCCC.chk
%NProcShared=20
# opt freq b3lyp/6-31g(2df,p)

Title Card Required 

0  1
C           0.97418         0.18213        -0.16581
C           2.50300         0.30245        -0.20023
C           3.04690        -0.34188         1.05887
C           4.55298        -0.57687         1.16052
C           4.99642        -1.37058         2.42982
C           4.50495        -2.85410         2.49767
C           3.01082        -2.97631         2.57784
C           2.32787        -4.24895         2.83387
C           2.10114        -5.02074         1.51906
C           2.61477        -5.72758         2.72684
C           1.64538        -6.57005         3.49286
O           6.44250        -1.34085         2.45619
C           6.97634        -1.88179         3.66387
C           8.49335        -1.86597         3.65108
C           9.00824        -2.55007         4.90899
H           0.52709         0.61414        -1.06228
H           0.56214         0.68366         0.71678
H           0.65933        -0.87016        -0.11255
H           2.81888         1.34259        -0.27965
H           2.87198        -0.24905        -1.07374
H           2.56140        -1.28653         0.96308
H           2.65762         0.12726         1.96924
H           5.05645         0.39894         1.15331
H           4.91566        -1.10370         0.26991
H           4.63857        -0.81653         3.30944
H           4.88876        -3.34852         3.39109
H           4.91649        -3.40576         1.64460
H           2.61121        -2.77088         1.60339
H           2.62957        -2.22563         3.28376
H           1.49407        -4.03265         3.49193
H           2.81051        -4.90847         0.70098
H           1.08052        -5.11114         1.18019
H           3.62239        -6.10096         2.71415
H           0.64026        -6.12467         3.47533
H           1.95708        -6.61700         4.53935
H           1.56352        -7.57512         3.07595
H           6.69498        -2.93102         3.75906
H           6.58610        -1.32650         4.52430
H           8.86508        -0.83897         3.58278
H           8.85799        -2.39437         2.76206
H           8.65424        -2.02996         5.80550
H          10.10013        -2.56714         4.92391
H           8.65073        -3.58549         4.96270

