%chk=CCCC1CNCCCCCCqCrqCCrO1.chk
%NProcShared=20
# opt freq b3lyp/6-31g(2df,p)

Title Card Required 

0  1
C          -0.01543        -0.42915         0.13808
C           1.40534        -0.58185        -0.17196
C           2.51182        -1.30068         0.86070
C           4.19738        -1.06829         0.82394
C           4.96942        -2.14342        -0.08332
N           4.16764        -3.16757        -0.76546
C           3.80679        -2.93142        -2.17342
C           3.05080        -1.64023        -2.47433
C           3.93303        -0.34727        -2.37174
C           3.46889         1.12769        -2.20131
C           4.21536         1.99686        -1.01235
C           4.15795         1.55592         0.56037
C           2.76080         1.30692         0.77158
C           4.19311         2.63095         1.68765
C           3.83188         2.03886         3.09361
O           4.86965         0.29082         0.79453
H          -0.39216         0.37879        -0.52154
H          -0.11336        -0.05349         1.16178
H          -0.53869        -1.33882        -0.10522
H           1.46871         0.47475        -0.41558
H           1.54613        -0.69952        -1.24074
H           2.30681        -2.37369         0.87493
H           2.24842        -1.04417         1.90350
H           4.51788        -1.38678         1.83686
H           5.64086        -2.71198         0.57958
H           5.69815        -1.69557        -0.76679
H           3.34786        -3.41060        -0.21526
H           3.10690        -3.74710        -2.41979
H           4.66633        -3.02926        -2.82649
H           2.26199        -1.90690        -1.79366
H           2.48974        -1.62659        -3.41702
H           4.52830        -0.38256        -3.29167
H           4.65716        -0.44303        -1.59291
H           2.37935         1.24457        -2.17399
H           3.74513         1.64258        -3.13736
H           3.76027         2.99634        -1.08271
H           5.26167         2.08594        -1.31142
H           2.02845         2.06562         0.48399
H           2.42033         0.80564         1.67459
H           2.92756         0.57954         0.03334
H           3.40588         3.38314         1.46500
H           5.12293         3.18539         1.71453
H           2.81210         1.63085         3.19805
H           3.83537         2.80896         3.86219
H           4.50262         1.21251         3.33639

