%chk=CCCCCqCtSCOCrCdCOCCO.chk
%NProcShared=20
# opt freq b3lyp/6-31g(2df,p)

Title Card Required 

0  1
C           0.90764        -0.03158        -0.02891
C           2.42498        -0.03679        -0.01739
C           2.94691        -0.97137        -1.09408
C           4.47301        -0.97661        -1.13554
C           4.98525        -1.90848        -2.23556
C           4.47858        -1.43035        -3.58651
S           3.96104        -0.94196        -4.96646
C           2.17175        -0.84066        -4.88384
O           1.66319        -0.40289        -6.14636
C           0.25016        -0.29138        -6.13996
C           6.49739        -1.94673        -2.26976
C           7.23938        -2.67940        -3.11639
O           8.60606        -2.64241        -3.06086
C           9.25950        -3.45089        -4.04275
C          10.77010        -3.30050        -3.86314
O          11.49177        -4.08539        -4.80577
H           0.52551         0.63654         0.74634
H           0.51632        -1.03757         0.15378
H           0.52717         0.31016        -0.99774
H           2.79217        -0.35645         0.96319
H           2.79596         0.97919        -0.19668
H           2.54403        -0.63791        -2.05355
H           2.57659        -1.99066        -0.93104
H           4.86182        -1.30348        -0.16282
H           4.83964         0.04579        -1.30040
H           4.61233        -2.92442        -2.05339
H           1.87617        -0.11784        -4.11886
H           1.75614        -1.82583        -4.65169
H          -0.07565         0.05558        -7.12486
H          -0.07225         0.43638        -5.38981
H          -0.20464        -1.26639        -5.94483
H           7.02640        -1.32936        -1.54766
H           6.81044        -3.31662        -3.87811
H           8.97694        -3.14322        -5.05754
H           8.98017        -4.50480        -3.91760
H          11.07350        -3.59179        -2.85124
H          11.06491        -2.25342        -3.99091
H          11.28640        -5.01985        -4.63308

