%chk=CCCCCCqCCCrCC1CCqCOrO1.chk
%NProcShared=20
# opt freq b3lyp/6-31g(2df,p)

Title Card Required 

0  1
C           0.92407        -0.08763         0.05518
C           2.42982        -0.11588         0.15773
C           2.86652         0.21459         1.59284
C           4.37525         0.23222         1.62200
C           5.03717         0.73574         2.89278
C           6.58868         0.79934         2.80255
C           7.12895         1.80414         1.72990
C           6.84596         1.45676         0.26481
C           7.40651         2.43386        -0.74062
C           7.13580         1.15602         4.21970
C           8.65866         1.20448         4.21889
C           9.28734         2.56048         4.60011
C          10.30668         1.68283         5.34333
C          11.55525         1.30447         4.53874
O          12.44968         0.51844         5.31459
O           9.29433         0.61340         5.40273
H           0.60302        -0.36348        -0.95233
H           0.54968         0.91676         0.27635
H           0.48744        -0.78923         0.77043
H           2.84981         0.61018        -0.55446
H           2.81565        -1.09859        -0.14019
H           2.46519        -0.49940         2.31376
H           2.49826         1.21594         1.85155
H           4.53876         0.96727         0.86334
H           4.80929        -0.71919         1.29369
H           4.74314         0.07659         3.71824
H           4.65302         1.73557         3.12909
H           6.96171        -0.20388         2.55213
H           8.21905         1.87161         1.80864
H           6.74504         2.80455         1.95920
H           5.80449         1.57062         0.02750
H           7.13411         0.42366         0.04233
H           7.02252         3.43747        -0.52723
H           7.03626         2.15342        -1.73491
H           8.49392         2.44257        -0.75002
H           6.78125         0.41659         4.94875
H           6.71898         2.12276         4.53149
H           9.09145         0.71695         3.33748
H           8.68290         3.17766         5.27514
H           9.65454         3.17088         3.77404
H          10.55019         2.05729         6.34461
H          12.08829         2.20512         4.21563
H          11.30992         0.73015         3.63754
H          12.69005         1.04077         6.10862

