%chk=CCCCdCqCCrCCCCCqNrCC.chk
%NProcShared=20
# opt freq b3lyp/6-31g(2df,p)

Title Card Required 

0  1
C           0.99661        -0.04029        -0.00295
C           2.52138        -0.13102         0.05693
C           3.06990         1.04600        -0.72073
C           4.54506         1.21886        -0.83355
C           5.13950         2.24032        -1.50602
C           4.43197         3.37203        -2.25610
C           2.91501         3.44353        -2.30415
C           6.66198         2.27086        -1.52062
C           7.25400         3.45182        -2.29003
C           8.76638         3.42645        -2.28032
C           9.30652         4.60599        -3.08828
C          10.83587         4.61328        -3.11640
N          11.35232         3.38986        -3.73566
C          11.34983         5.83144        -3.89163
C          12.87063         5.88326        -3.89970
H           0.53662        -0.86512         0.54192
H           0.64257        -0.06870        -1.04123
H           0.64262         0.90356         0.43070
H           2.86297        -1.06978        -0.38881
H           2.86299        -0.08931         1.09530
H           2.66808         1.93241        -0.22357
H           2.66862         0.93646        -1.73132
H           5.16439         0.47423        -0.34119
H           4.76524         3.34773        -3.30100
H           4.76377         4.32450        -1.82496
H           2.50126         2.56541        -2.80418
H           2.57054         4.30720        -2.87474
H           2.50085         3.55877        -1.30041
H           7.03591         1.33836        -1.96606
H           7.03441         2.30392        -0.48775
H           6.91860         4.39870        -1.85294
H           6.91941         3.42073        -3.33385
H           9.09316         2.47515        -2.71121
H           9.14238         3.47450        -1.25207
H           8.94259         5.54371        -2.64572
H           8.90664         4.57316        -4.11109
H          11.20568         4.66799        -2.08490
H          10.95848         3.28945        -4.67037
H          11.05375         2.57209        -3.20882
H          10.96356         6.75119        -3.43441
H          10.97778         5.81192        -4.92405
H          13.25672         5.93798        -2.87683
H          13.22022         6.75807        -4.45262
H          13.29628         4.99472        -4.37700

