%chk=CCCC1CCqOrCCC1CCCOC.chk
%NProcShared=20
# opt freq b3lyp/6-31g(2df,p)

Title Card Required 

0  1
C           0.97659        -0.05259        -0.08500
C           2.50402        -0.10811        -0.20303
C           3.04126        -0.52133         1.15188
C           4.55701        -0.46451         1.39192
C           5.07557        -1.75185         2.06394
C           6.60391        -1.72636         2.16896
O           7.06663        -2.90034         2.82104
C           7.11375        -0.48943         2.90810
C           6.54696         0.79803         2.31117
C           5.00323         0.77283         2.24013
C           4.44444         0.85368         3.69787
C           2.93300         0.82564         3.80495
C           2.35615         0.90924         5.18553
O           0.94160         0.85316         4.99052
C           0.26512         0.80486         6.22905
H           0.52103         0.27130        -1.02100
H           0.66557         0.65224         0.69962
H           0.57218        -1.03311         0.19089
H           2.87593         0.89424        -0.44678
H           2.81866        -0.80303        -0.98232
H           2.61537        -1.47796         1.47771
H           2.57310         0.25506         1.72748
H           5.04016        -0.39891         0.40733
H           4.76629        -2.63725         1.49492
H           4.63396        -1.88577         3.06083
H           7.02562        -1.73661         1.15599
H           6.80246        -2.84667         3.76246
H           8.20944        -0.46712         2.88749
H           6.85740        -0.56163         3.97253
H           6.95743         0.93672         1.30271
H           6.88375         1.65715         2.90375
H           4.68088         1.67663         1.70473
H           4.81331         1.77661         4.16132
H           4.82823         0.02820         4.30344
H           2.57457        -0.15443         3.47792
H           2.49149         1.61342         3.17861
H           2.63737         1.83961         5.68086
H           2.68318         0.03968         5.76554
H          -0.80917         0.76987         6.03672
H           0.50180         1.70227         6.80439
H           0.56021        -0.09448         6.77607

