%chk=CCCCCqCrCCCqCOrCCqCrC.chk
%NProcShared=20
# opt freq b3lyp/6-31g(2df,p)

Title Card Required 

0  1
C           1.01425        -0.11013        -0.01941
C           2.53095        -0.11637        -0.02653
C           3.01923         0.92985        -1.01021
C           4.53088         1.01995        -1.03382
C           4.99384         2.11783        -2.00632
C           4.49908         3.50491        -1.61964
C           6.50787         2.07537        -2.03346
C           7.15151         3.03402        -3.02588
C           8.68798         2.90587        -3.02998
C           9.10606         1.46076        -3.36016
O           8.72684         0.48279        -2.39891
C           9.25710         3.95545        -4.02290
C          10.79709         4.08427        -4.08094
C          11.53763         2.84272        -4.57637
C          11.19423         5.21780        -5.02911
H           0.63186        -0.84519         0.69099
H           0.62452        -0.34628        -1.01510
H           0.63536         0.87787         0.26525
H           2.90716        -1.10714        -0.30331
H           2.90697         0.11332         0.97733
H           2.59490         1.89307        -0.71534
H           2.65537         0.70456        -2.02008
H           4.94435         0.04703        -1.33939
H           4.92198         1.21604        -0.02682
H           4.62662         1.86960        -3.01129
H           4.86238         3.77710        -0.62380
H           3.40994         3.56156        -1.62803
H           4.84069         4.26034        -2.33112
H           6.72310         1.04879        -2.32361
H           6.92699         2.24070        -1.03216
H           6.89068         4.06824        -2.77338
H           6.75116         2.84221        -4.02963
H           9.03706         3.16417        -2.02140
H          10.16971         1.34927        -3.33593
H           8.74320         1.16921        -4.34853
H           8.99756         0.80438        -1.53274
H           8.85677         4.94191        -3.73405
H           8.85610         3.76750        -5.02799
H          11.15541         4.33276        -3.07420
H          11.01511         2.38615        -5.42470
H          11.68732         2.11344        -3.78306
H          12.55996         3.07359        -4.88278
H          10.84455         5.00989        -6.04681
H          12.28603         5.30916        -5.06526
H          10.78844         6.17975        -4.70804

