%chk=CCCCCCqCrOCCqdOrCCC.chk
%NProcShared=20
# opt freq b3lyp/6-31g(2df,p)

Title Card Required 

0  1
C           0.90277        -0.06467         0.03349
C           2.41628        -0.06373         0.05189
C           2.92566         0.45231         1.39312
C           4.44013         0.45249         1.39328
C           5.01103         0.98945         2.69991
C           6.54359         1.00648         2.65506
C           7.04220         1.89983         1.51815
O           7.00430         1.49558         3.91207
C           8.41775         1.48854         4.03489
C           8.86123         2.01559         5.38366
O           8.06317         2.36787         6.25678
C          10.36142         2.11375         5.58008
C          10.66849         2.66873         6.96312
C          12.15728         2.77066         7.21304
H           0.53477        -0.44042        -0.92438
H           0.51644         0.94879         0.18094
H           0.51121        -0.70242         0.83184
H           2.79385         0.56603        -0.76367
H           2.79137        -1.07870        -0.12595
H           2.55185        -0.17292         2.21090
H           2.56021         1.47300         1.56051
H           4.76025         1.07328         0.55154
H           4.82362        -0.55944         1.21503
H           4.66649         0.37631         3.54391
H           4.62975         2.00014         2.89939
H           6.90371        -0.02188         2.52667
H           6.70369         2.92979         1.67568
H           6.70910         1.55468         0.53934
H           8.13155         1.91832         1.46060
H           8.86530         2.16424         3.30168
H           8.80326         0.47260         3.89799
H          10.77662         2.76933         4.80483
H          10.79585         1.11498         5.45826
H          10.21374         2.02439         7.72515
H          10.21175         3.66030         7.07125
H          12.63135         1.78736         7.14068
H          12.33819         3.16753         8.21619
H          12.62909         3.43988         6.48739

