%chk=CCCCqCNrCqCCrCCCON.chk
%NProcShared=20
# opt freq b3lyp/6-31g(2df,p)

Title Card Required 

0  1
C           0.93870         0.02259         0.01735
C           2.44893        -0.12001         0.03771
C           3.07498         0.75383        -1.04277
C           4.61450         0.85222        -1.10682
C           5.22987        -0.55112        -1.35614
N           4.90674        -1.50569        -0.30866
C           5.07866         1.90163        -2.20102
C           4.56011         3.35919        -1.98256
C           3.07137         3.64125        -2.12744
C           6.63469         1.94471        -2.26443
C           7.21014         2.83662        -3.36260
C           8.72905         2.79266        -3.34402
O           9.20739         3.59556        -4.42430
N          10.65891         3.67220        -4.32707
H           0.50063        -0.60291         0.79864
H           0.54491        -0.30384        -0.95077
H           0.63399         1.05979         0.18425
H           2.65387        -1.17855        -0.11300
H           2.83972         0.18299         1.01658
H           2.69997         1.72606        -0.77373
H           2.67521         0.49951        -2.03225
H           4.97566         1.22145        -0.13635
H           6.31865        -0.51638        -1.39300
H           4.87503        -0.93562        -2.32045
H           5.21207        -1.15820         0.60360
H           5.31511        -2.41221        -0.47472
H           4.71905         1.55467        -3.17982
H           5.00732         4.00486        -2.74314
H           4.91547         3.73224        -1.01502
H           2.63916         3.08330        -2.96290
H           2.90720         4.70873        -2.30044
H           2.51235         3.44830        -1.21272
H           7.03455         0.94675        -2.46266
H           7.02912         2.25577        -1.28831
H           6.91409         3.88184        -3.24458
H           6.83618         2.51461        -4.34223
H           9.08289         1.76479        -3.48367
H           9.10420         3.17841        -2.38804
H          10.85925         4.31760        -5.09359
H          10.93504         2.75520        -4.68065

