%chk=CCCCCCC1CCCCCqCrCC1.chk
%NProcShared=20
# opt freq b3lyp/6-31g(2df,p)

Title Card Required 

0  1
C           0.87412         0.00766        -0.03689
C           2.38635         0.03039        -0.00819
C           2.93414        -0.83565        -1.11773
C           4.45156        -0.79666        -1.10410
C           4.89914        -1.66592        -2.24551
C           6.38657        -1.63799        -2.44955
C           6.79824        -2.53303        -3.62953
C           5.69442        -3.19492        -4.47955
C           6.11630        -4.46565        -5.22931
C           7.02578        -5.42428        -4.44309
C           8.50653        -5.34093        -4.83682
C           9.29832        -4.07732        -4.43448
C           9.50127        -3.94635        -2.90900
C           8.80311        -2.82527        -5.19993
C           7.90995        -1.85407        -4.43919
H           0.47847         0.63572         0.76351
H           0.49999        -1.01216         0.09903
H           0.50006         0.38372        -0.99486
H           2.75142        -0.33728         0.95693
H           2.74876         1.05645        -0.13285
H           2.56524        -0.48361        -2.09110
H           2.58566        -1.87102        -1.00605
H           4.84550        -1.18384        -0.15633
H           4.81996         0.22572        -1.23168
H           4.41566        -1.32439        -3.16932
H           4.57262        -2.68874        -2.03226
H           6.87319        -2.03780        -1.54149
H           6.75639        -0.61551        -2.54588
H           7.19779        -3.35525        -3.10131
H           5.23588        -2.47814        -5.16348
H           4.89168        -3.54693        -3.82032
H           6.54857        -4.20780        -6.19984
H           5.19071        -5.00593        -5.47187
H           6.69342        -6.44689        -4.66101
H           6.89875        -5.32798        -3.35802
H           8.57284        -5.45784        -5.92771
H           9.02259        -6.21305        -4.41768
H          10.31235        -4.24558        -4.82173
H           8.61022        -4.08704        -2.29415
H           9.93054        -2.97420        -2.64719
H          10.17271        -4.73002        -2.54954
H           8.30957        -3.11538        -6.13429
H           9.67991        -2.25911        -5.54576
H           7.47890        -1.12606        -5.13416
H           8.55907        -1.27445        -3.76944

