%chk=CCCCCC1OCCCqCNCOrCCCC1C.chk
%NProcShared=20
# opt freq b3lyp/6-31g(2df,p)

Title Card Required 

0  1
C           0.69258        -0.04933        -0.09845
C           2.18913        -0.13273        -0.22241
C           2.60144        -1.21493        -1.31388
C           4.07753        -1.38335        -1.62463
C           4.95088        -2.34188        -2.40246
C           6.48240        -1.97136        -2.06724
O           6.98287        -0.89517        -2.90341
C           6.80462         0.50586        -2.68514
C           5.40715         1.00803        -2.46277
C           4.98921         1.26618        -0.87726
C           5.54793         2.67697        -0.62185
N           5.14707         3.21253         0.66711
C           5.75238         4.50534         0.82021
O           5.42984         4.95644         2.10542
C           5.12731         0.30611         0.59942
C           4.86573        -1.26269         1.01234
C           6.01307        -2.27283         0.67082
C           7.00678        -1.98796        -0.52867
C           7.89333        -0.79429        -0.19561
H           0.41845         0.72702         0.62575
H           0.30876        -1.00968         0.23687
H           0.27770         0.22544        -1.06967
H           2.58176        -0.31681         0.78115
H           2.44322         0.89843        -0.45013
H           2.17444        -0.84724        -2.25155
H           2.18259        -2.16266        -1.02085
H           4.73749        -1.32425        -0.84830
H           4.21199        -0.45720        -1.91923
H           4.75825        -2.22953        -3.47041
H           4.76367        -3.36106        -2.07223
H           7.01827        -2.83208        -2.51065
H           7.16350         0.99077        -3.60284
H           7.47717         0.92138        -1.94291
H           4.75104         0.41980        -3.13522
H           5.22815         1.95549        -2.99803
H           3.93659         1.49680        -0.98466
H           5.15022         3.34595        -1.40125
H           6.63508         2.65143        -0.72788
H           5.52623         2.62282         1.40561
H           5.35626         5.20798         0.08128
H           6.84036         4.44445         0.72126
H           4.46602         4.83668         2.15035
H           4.46854         0.82572         1.31400
H           6.10877         0.51728         1.02194
H           3.95527        -1.74185         0.61253
H           4.51953        -1.34172         2.05408
H           5.56661        -3.26566         0.49335
H           6.58651        -2.38593         1.60069
H           7.70105        -2.84613        -0.48134
H           7.32171         0.10875        -0.31399
H           8.75256        -0.70716        -0.86418
H           8.23635        -0.78146         0.84142

