%chk=CCCCOCCqCrC1CCqCCCCrO1.chk
%NProcShared=20
# opt freq b3lyp/6-31g(2df,p)

Title Card Required 

0  1
C           0.93364         0.03661         0.08175
C           2.45137         0.02881         0.08849
C           2.99788        -1.13917         0.90254
C           4.51805        -1.12755         0.90598
O           4.98434        -2.21540         1.70149
C           6.40722        -2.26036         1.70877
C           6.90798        -3.47409         2.50435
C           6.41697        -4.77267         1.86781
C           8.43033        -3.39960         2.51197
C           9.06854        -2.57978         3.65099
C          10.09006        -3.72990         3.68149
C          11.34000        -3.51760         2.82528
C          12.30134        -4.69406         2.96659
C          13.55226        -4.48078         2.11392
C          14.52198        -5.64126         2.25719
O           9.10868        -4.59496         3.01823
H           0.56272         0.88322        -0.50378
H           0.53974         0.12587         1.09902
H           0.54068        -0.88394        -0.36103
H           2.81592         0.97489         0.50587
H           2.81831        -0.03192        -0.94295
H           2.63992        -2.09274         0.49433
H           2.62887        -1.09499         1.93464
H           4.88887        -0.18610         1.32740
H           4.89513        -1.23185        -0.11855
H           6.79299        -1.33384         2.15179
H           6.77344        -2.31556         0.67449
H           6.50503        -3.43286         3.52425
H           6.77905        -4.87443         0.83948
H           5.32251        -4.81034         1.85041
H           6.76565        -5.64211         2.43410
H           8.82650        -3.16583         1.51317
H           8.46874        -2.51487         4.56625
H           9.44163        -1.59085         3.38471
H          10.31180        -4.07759         4.69501
H          11.84573        -2.59875         3.14715
H          11.08081        -3.38069         1.76949
H          11.80030        -5.62311         2.66873
H          12.58711        -4.80927         4.01860
H          14.05419        -3.55277         2.41314
H          13.27250        -4.37132         1.05979
H          14.84695        -5.75231         3.29637
H          15.40907        -5.47332         1.63871
H          14.05700        -6.57976         1.93930

