%chk=CCCdCCCdCqCCCrCqCrdO.chk
%NProcShared=20
# opt freq b3lyp/6-31g(2df,p)

Title Card Required 

0  1
C           1.03465        -0.07675        -0.06395
C           2.54843        -0.11969        -0.08061
C           3.13550         1.14949         0.41174
C           4.46521         1.31321         0.47525
C           4.97084         2.60405         0.97600
C           6.44957         2.78613         1.04663
C           7.08697         3.90128         1.47922
C           6.42409         5.20263         1.98405
C           4.89530         5.19593         1.98145
C           4.13226         6.39872         2.44804
C           8.60319         3.93638         1.49284
C           9.43634         2.75627         1.03505
O           9.18090         4.95973         1.88982
H           0.64088        -1.02676        -0.43248
H           0.65479         0.72787        -0.70302
H           0.65479         0.08642         0.95055
H           2.90098        -0.29186        -1.10253
H           2.90098        -0.93598         0.55788
H           2.46610         1.95508         0.72425
H           5.14957         0.53259         0.17243
H           4.56183         2.67336         1.98612
H           4.56183         3.33641         0.27687
H           6.98891         1.91482         0.70863
H           6.76394         6.03917         1.36050
H           6.76394         5.39983         3.00861
H           4.55527         4.39990         2.64488
H           4.55527         5.05554         0.95476
H           4.34535         6.60758         3.49539
H           3.06264         6.15981         2.35536
H           4.34535         7.25924         1.81553
H           8.86602         1.89424         0.70065
H          10.06336         2.41685         1.86416
H          10.06336         3.06477         0.19395

