%chk=CCCqCrCqCOrCqCrCqCrdCN.chk
%NProcShared=20
# opt freq b3lyp/6-31g(2df,p)

Title Card Required 

0  1
C           0.92541        -0.03516         0.00028
C           2.44075         0.03674         0.02374
C           2.98651         1.47453         0.18619
C           2.38717         2.01953         1.48995
C           4.56269         1.50120         0.11361
C           5.03728         0.90061        -1.26435
O           4.84414        -0.50564        -1.38035
C           5.22950         2.92136         0.31560
C           4.84715         3.66149         1.61382
C           6.76964         2.91439         0.29309
C           7.54744         1.61918         0.30655
C           7.45663         4.06228         0.32817
N           8.80984         4.18384         0.36295
H           0.60638        -1.06433        -0.16901
H           0.54510         0.59849        -0.80654
H           0.46960         0.27665         0.94004
H           2.74147        -0.39368        -0.92976
H           2.84454        -0.60116         0.82097
H           2.61480         2.08610        -0.64626
H           2.86689         1.57222         2.36583
H           1.31503         1.85585         1.57457
H           2.40248         3.09824         1.54103
H           4.90870         0.84962         0.92877
H           6.09654         1.03259        -1.47141
H           4.52981         1.39929        -2.09481
H           5.04449        -0.91817        -0.52374
H           4.88227         3.54217        -0.52518
H           4.97713         3.02014         2.49089
H           3.84608         4.07296         1.58037
H           5.42301         4.57564         1.78372
H           6.94459         0.71826         0.40709
H           8.23450         1.58683         1.15409
H           8.11396         1.53481        -0.62937
H           6.95226         5.03074         0.36408
H           9.38305         3.35065         0.32347
H           9.24864         5.08623         0.46318

