%chk=CCN1CCqOCqCrdOrCC1CN.chk
%NProcShared=20
# opt freq b3lyp/6-31g(2df,p)

Title Card Required 

0  1
C           0.99356         0.07646        -0.06948
C           2.51068         0.07043        -0.07542
N           2.99411         0.62299        -1.35570
C           4.30417         0.05428        -1.69035
C           5.28996         0.85158        -0.84576
O           6.64397         0.69556        -1.27844
C           7.32398        -0.46588        -1.12423
C           6.65247        -1.64627        -0.47454
O           8.48372        -0.56369        -1.52696
C           4.77144         2.26569        -1.08827
C           3.24519         2.08793        -1.24033
C           2.69982         2.83001        -2.47868
N           2.88756         4.27709        -2.35459
H           0.62303        -0.33771         0.87293
H           0.60479        -0.54187        -0.88598
H           0.59578         1.08919        -0.18091
H           2.83316        -0.97112         0.05167
H           2.90023         0.61833         0.79264
H           4.52396         0.18757        -2.75784
H           4.33024        -1.02636        -1.53574
H           5.22751         0.63905         0.22879
H           5.66437        -1.44958        -0.06694
H           7.25466        -1.98002         0.37291
H           6.56181        -2.44967        -1.21257
H           5.22872         2.69208        -1.98987
H           5.01481         2.93453        -0.25512
H           2.73482         2.50060        -0.35914
H           1.63125         2.61719        -2.60247
H           3.20865         2.48138        -3.38515
H           2.35272         4.61966        -1.55731
H           2.50017         4.73604        -3.17757

