%chk=CCOCC1OCdCCdCCdCqOrON1CO.chk
%NProcShared=20
# opt freq b3lyp/6-31g(2df,p)

Title Card Required 

0  1
C           0.98396         0.04174         0.10045
C           2.52934         0.04083         0.16689
O           3.07762         0.18728         1.56116
C           4.57451         0.08306         1.63636
C           5.69231         0.28924         3.11515
O           6.76106         0.82936         2.48323
C           7.24198         1.39653         3.59588
C           8.52417         1.23574         3.72917
C           8.98453         1.75797         4.95321
C          10.28779         1.63252         5.16557
C          10.25566         0.90654         6.41542
C           9.91629        -0.32941         5.87650
O          11.64975        -0.39325         5.31144
O           8.14321        -0.58720         5.49034
N           6.38862        -0.76907         4.42951
C           4.54915        -0.77849         4.64874
O           3.59998        -1.87314         5.01935
H           0.60375        -0.10609        -0.92708
H           0.57062         0.98853         0.46099
H           0.56766        -0.76047         0.71560
H           2.87199         0.84965        -0.49999
H           2.86086        -0.91278        -0.26484
H           4.86376         0.93276         0.99177
H           4.84665        -0.82477         1.10837
H           5.03246         1.12256         3.56170
H           6.62580         1.58326         4.50967
H           9.00934         0.54015         3.03299
H           8.35043         1.59309         5.86346
H          10.78408         1.13970         4.27144
H          10.49463         1.24591         7.43814
H          12.23020         0.42503         4.94082
H           4.21053        -0.91918         3.57036
H           3.93481         0.20929         4.66100
H           3.07859        -2.23221         4.24020

