%chk=CCqCCOrCCCCCCqOrCOO.chk
%NProcShared=20
# opt freq b3lyp/6-31g(2df,p)

Title Card Required 

0  1
C           0.96317        -0.07808         0.06985
C           2.49152        -0.11070        -0.00083
C           2.98457        -0.50321        -1.40520
C           2.51718        -1.88074        -1.84876
O           3.04699        -2.16471        -3.13756
C           3.03426         1.26567         0.41921
C           4.55648         1.30175         0.45400
C           5.06195         2.67229         0.86800
C           6.58301         2.66826         0.85335
C           7.12159         4.03578         1.24616
C           8.64762         4.04981         1.23011
O           9.10643         3.71169        -0.08466
C           9.16626         5.42591         1.64699
O          10.59182         5.39392         1.68324
O          10.99927         6.74064         2.04633
H           0.53000        -1.05909        -0.14183
H           0.55462         0.63993        -0.64942
H           0.62521         0.21130         1.07015
H           2.85270        -0.85694         0.71910
H           4.07975        -0.51719        -1.44301
H           2.67831         0.25360        -2.13886
H           1.42917        -1.94481        -1.91426
H           2.87400        -2.64621        -1.15359
H           2.70997        -1.48544        -3.74208
H           2.65112         1.51956         1.41635
H           2.66385         2.03843        -0.26654
H           4.97119         1.08162        -0.53444
H           4.93176         0.53606         1.14368
H           4.69006         2.93011         1.86589
H           4.68678         3.43078         0.16954
H           6.93498         2.39664        -0.14986
H           6.96137         1.90498         1.54422
H           6.75190         4.30486         2.24295
H           6.73548         4.78078         0.53864
H           9.04313         3.28480         1.90728
H           8.80720         4.40153        -0.69646
H           8.79200         5.68727         2.64335
H           8.84740         6.18833         0.92710
H          11.95745         6.57484         1.97746

