%chk=CdC1CC1CqOrCqOrCCCO.chk
%NProcShared=20
# opt freq b3lyp/6-31g(2df,p)

Title Card Required 

0  1
C           1.14054        -0.06058        -0.07172
C           2.45350        -0.07481        -0.08278
C           3.62009        -0.86550        -0.13350
C           3.63647         0.69877        -0.06821
C           4.06653         1.43142         1.16617
O           5.41026         1.06179         1.47954
C           3.97086         2.95622         0.93014
O           2.63535         3.33762         0.59445
C           4.42920         3.74230         2.15556
C           4.34862         5.24477         1.90663
C           4.79170         6.01100         3.13954
O           4.70036         7.40581         2.89864
H           0.56767        -0.98153        -0.10880
H           0.58401         0.87131        -0.04024
H           3.87688        -1.31221        -1.08438
H           3.92034        -1.41184         0.74900
H           3.91023         1.21350        -0.98005
H           3.44401         1.15406         2.02702
H           5.96716         1.32082         0.72596
H           4.61151         3.23177         0.08253
H           2.05515         3.06567         1.32671
H           5.45902         3.47052         2.41610
H           3.79289         3.48703         3.01192
H           3.32706         5.54368         1.64175
H           4.97461         5.52026         1.04839
H           5.82505         5.76608         3.40432
H           4.15018         5.76750         3.99218
H           5.26767         7.60765         2.13517

