%chk=CdCCNCCCCC1dCCqdOrCqCrCC1.chk
%NProcShared=20
# opt freq b3lyp/6-31g(2df,p)

Title Card Required 

0  1
C           1.01894        -0.09459        -0.02272
C           2.35804        -0.10753        -0.04961
C           3.12924        -0.79293        -1.13052
N           4.56222        -0.64823        -0.90590
C           5.29581        -1.31381        -1.97667
C           6.79029        -1.15030        -1.73494
C           7.56309        -1.84082        -2.84298
C           9.06970        -1.70661        -2.62840
C           9.80991        -2.39668        -3.74291
C          10.54759        -1.69815        -4.61474
C          11.19274        -2.35039        -5.76165
O          11.83713        -1.64756        -6.54678
C          11.02169        -3.83875        -5.98529
C          10.34383        -4.03202        -7.33817
C          10.22815        -4.63227        -4.95268
C           9.61172        -3.87916        -3.79743
H           0.48143         0.41432         0.76982
H           0.43722        -0.58502        -0.79742
H           2.90821         0.40616         0.73521
H           2.86296        -0.34447        -2.09518
H           2.86070        -1.85602        -1.14921
H           4.80604        -1.08040        -0.01563
H           5.03499        -0.87821        -2.94902
H           5.04129        -2.38138        -2.00739
H           7.06824        -1.59386        -0.77061
H           7.06086        -0.08908        -1.70527
H           7.28592        -1.42552        -3.82090
H           7.25956        -2.89398        -2.85083
H           9.36136        -2.15418        -1.67058
H           9.33926        -0.64474        -2.57637
H          10.67444        -0.62167        -4.55580
H          12.03847        -4.25235        -6.00622
H           9.33753        -3.59463        -7.31670
H          10.24601        -5.09730        -7.57064
H          10.90091        -3.55028        -8.14478
H          10.85895        -5.43676        -4.55511
H           9.40615        -5.17079        -5.44743
H           9.95901        -4.32117        -2.85611
H           8.53879        -4.08994        -3.85222

