%chk=CdCqCrCCqCCCCrCqCCrCCO.chk
%NProcShared=20
# opt freq b3lyp/6-31g(2df,p)

Title Card Required 

0  1
C           0.89968        -0.00546         0.06901
C           2.24098         0.05543         0.26511
C           2.73201         0.03701         1.68401
C           3.15330         0.27902        -0.93889
C           4.71824         0.20634        -0.90438
C           5.23411        -1.25590        -0.66953
C           4.60310        -1.82919         0.55743
C           4.88461        -3.20753         1.08044
C           4.01658        -3.41723         2.33092
C           5.42068         0.76490        -2.20429
C           5.03468         2.21295        -2.61551
C           3.61165         2.46745        -3.08760
C           6.96920         0.70702        -2.00696
C           7.78459         1.06626        -3.23829
O           9.16835         0.92503        -2.94176
H           0.23700        -0.14789         0.91109
H           0.46317         0.12246        -0.91037
H           1.94378         0.23168         2.41099
H           3.54774         0.74912         1.83274
H           3.05406        -0.95170         1.99553
H           2.90479         1.30783        -1.12787
H           2.80684        -0.30855        -1.80306
H           5.04053         0.84781        -0.07257
H           6.30825        -1.27582        -0.48483
H           5.01614        -1.87289        -1.54660
H           3.54429        -1.88268         0.31904
H           4.87532        -1.12922         1.35561
H           5.94167        -3.30726         1.32842
H           4.60935        -3.93924         0.31762
H           4.25466        -2.68434         3.11362
H           4.16605        -4.41606         2.73930
H           2.94676        -3.30144         2.10506
H           5.16738         0.09563        -3.03830
H           5.64504         2.50140        -3.47684
H           5.29316         2.90561        -1.80679
H           3.25644         1.65690        -3.73019
H           3.55927         3.40902        -3.63909
H           2.91282         2.63127        -2.27133
H           7.30722        -0.29838        -1.74414
H           7.26108         1.33725        -1.15579
H           7.62460         2.09443        -3.56099
H           7.53754         0.38745        -4.06001
H           9.36966         1.54506        -2.21958

