%chk=CdNCCqCOrCqCCrCN.chk
%NProcShared=20
# opt freq b3lyp/6-31g(2df,p)

Title Card Required 

0  1
C           0.94802        -0.06905         0.00376
N           2.21939        -0.19767        -0.10469
C           2.92034         1.05189         0.23028
C           4.45390         0.89764         0.23525
C           4.92031         0.42671        -1.16278
O           4.39591        -0.83046        -1.56218
C           5.20564         2.22443         0.65878
C           4.85191         2.75384         2.08266
C           3.43149         3.24389         2.31968
C           6.75250         2.01862         0.59204
N           7.50517         3.23434         0.89050
H           0.29057        -0.93362        -0.18170
H           0.44421         0.87537         0.29286
H           2.58859         1.24547         1.23606
H           2.61673         1.88124        -0.42146
H           4.70391         0.11818         0.96791
H           5.99755         0.28062        -1.19714
H           4.64989         1.17252        -1.91798
H           4.18116        -1.32615        -0.75075
H           4.94597         3.00704        -0.06893
H           5.48731         3.62084         2.30358
H           5.10554         1.99038         2.82702
H           3.07138         3.84548         1.47993
H           3.37566         3.83875         3.23420
H           2.73830         2.43193         2.52210
H           7.07403         1.70968        -0.40428
H           7.04983         1.23002         1.29327
H           7.28458         3.94890         0.19791
H           8.50320         3.04610         0.79719

