%chk=COC1CCCqCrCOCCCqCrN1.chk
%NProcShared=20
# opt freq b3lyp/6-31g(2df,p)

Title Card Required 

0  1
C           0.87207        -0.15671        -0.47267
O           2.23474         0.01340        -0.14073
C           2.73133        -0.70333         0.98625
C           4.28580        -0.71588         0.94433
C           4.94555         0.00695        -0.24385
C           5.45853         1.43026         0.06711
C           6.60019         1.38414         1.09119
C           4.33594         2.38951         0.50273
O           4.14377         2.30005         1.91280
C           3.03569         3.04001         2.40021
C           2.09700         2.13069         3.20486
C           1.50638         1.01867         2.32229
C           0.07801         0.66798         2.75407
N           2.31720        -0.19419         2.29538
H           0.69506         0.39195        -1.40043
H           0.20775         0.30514         0.25275
H           0.60433        -1.20593        -0.59205
H           2.41124        -1.74949         0.89914
H           4.61925        -1.76388         0.93121
H           4.69401        -0.34604         1.89144
H           4.28081         0.04524        -1.11529
H           5.79785        -0.59438        -0.58891
H           5.87006         1.81562        -0.87598
H           6.27280         1.01367         2.06803
H           7.01601         2.38307         1.24986
H           7.40324         0.72403         0.74939
H           3.40867         2.16990        -0.03761
H           4.61747         3.41922         0.25453
H           2.48322         3.53365         1.58949
H           3.42245         3.82762         3.05406
H           1.28527         2.75636         3.59619
H           2.62071         1.70242         4.06790
H           1.44191         1.48549         1.33792
H           0.01441         0.41912         3.81658
H          -0.31815        -0.19012         2.19738
H          -0.58525         1.51435         2.54740
H           1.88382        -0.95110         2.83077

