%chk=CtCCCPqCrCqCrCCCqCrCCCCqCrC.chk
%NProcShared=20
# opt freq b3lyp/6-31g(2df,p)

Title Card Required 

0  1
C           1.09554        -0.00834         0.02832
C           2.39940        -0.00834         0.02832
C           3.91940        -0.00834         0.02832
C           4.49281        -0.86429         1.13836
P           6.32201        -0.95881         0.93917
C           6.83035         0.74042         1.41304
C           6.79923        -1.97143         2.42995
C           6.25252        -3.39503         2.28920
C           8.33050        -1.97395         2.50447
C           8.89828        -2.81096         3.64434
C          10.43123        -2.77556         3.65700
C          10.95957        -1.34384         3.83443
C          10.92262        -3.71876         4.76802
C          12.43948        -3.77842         4.78797
C          12.97568        -4.64062         5.91748
C          14.51302        -4.61472         5.94233
C          15.07222        -3.20027         6.14002
C          15.01395        -5.52678         7.05723
H           0.02982        -0.00838         0.02617
H           4.24721         1.03393         0.12079
H           4.24850        -0.36334        -0.95697
H           4.07252        -1.87273         1.06082
H           4.20823        -0.47367         2.12213
H           6.48941         1.45812         0.65985
H           7.92068         0.82510         1.44587
H           6.43280         1.05315         2.38271
H           6.39083        -1.51532         3.34005
H           6.62564        -3.87476         1.37709
H           5.15961        -3.40934         2.25747
H           6.53525        -4.02390         3.13814
H           8.65815        -0.93830         2.63502
H           8.76195        -2.32558         1.55830
H           8.59213        -3.85720         3.52935
H           8.49902        -2.45958         4.60191
H          10.79554        -3.15784         2.69552
H          10.62176        -0.91953         4.78397
H          10.63546        -0.68510         3.02491
H          12.05096        -1.29947         3.80217
H          10.52206        -4.72933         4.60633
H          10.54662        -3.37928         5.73929
H          12.81353        -2.76558         4.93667
H          12.81525        -4.13461         3.82368
H          12.61945        -5.67121         5.78760
H          12.57829        -4.28304         6.87409
H          14.88446        -4.99920         4.98503
H          14.68691        -2.74909         7.05989
H          14.81773        -2.53757         5.30654
H          16.16487        -3.21812         6.19437
H          14.66547        -5.17829         8.03465
H          16.10790        -5.55216         7.07185
H          14.65282        -6.55007         6.91143

