%chk=[C]dCCdC1CC1CCCSNdO.chk
%NProcShared=20
# opt freq b3lyp/6-31g(2df,p)

Title Card Required 

0  1
C           1.15049        -0.05987        -0.12708
C           2.48598        -0.01974        -0.10060
C           3.28421        -1.11638        -0.59877
C           4.60194        -1.13971        -0.60248
C           5.79359        -0.46495        -0.25996
C           5.76226        -1.88261        -0.93631
C           6.21878        -2.07137        -2.36036
C           6.16348        -3.55880        -2.74569
C           6.60837        -3.84340        -4.18618
S           6.45844        -5.64861        -4.46281
N           6.98975        -5.55860        -6.05304
O           7.00315        -6.68368        -6.56693
H           2.97824         0.86993         0.27766
H           2.73459        -1.96965        -0.99111
H           6.05565        -0.42917         0.79094
H           6.09696         0.38727        -0.85016
H           6.06478        -2.69724        -0.28801
H           7.25210        -1.71506        -2.45271
H           5.61003        -1.48086        -3.05646
H           5.13775        -3.91915        -2.59311
H           6.80294        -4.12129        -2.05130
H           7.64704        -3.52189        -4.32768
H           5.97248        -3.29361        -4.88922

