%chk=C1dc2cccccc3s[nH]cc-3c2dC1.chk
%NProcShared=20
# opt freq b3lyp/6-31g(2df,p)

Title Card Required 

0  1
C           1.87066         0.31527        -0.21136
C           3.36561         0.32804         0.11488
C           3.67303        -1.36015         1.36737
C           4.86411        -1.50671         1.65437
C           5.22157        -2.68470         2.08370
C           6.40409        -2.50587         1.97199
C           7.40131        -3.08710         2.36096
C           8.13907        -2.20831         1.64817
S           9.12352        -3.65574         2.83384
N          10.08593        -2.67699         2.08527
C           8.85384        -1.46557         1.11802
C           7.16879        -0.86643         0.52882
C           4.85080        -0.46323        -0.02362
C           2.93364        -0.58059         0.06313
H           0.71969         0.75778        -0.46677
H           2.78273        -1.93631         1.53466
H           5.72751        -0.60030         1.24872
H           4.43416        -3.11690         2.40381
H           6.37649        -1.92485         1.23768
H           6.97513        -3.82946         2.96227
H          11.22863        -3.30921         2.57843
H          10.31036        -1.51806         1.22516
H           1.60727        -1.06140         0.78701

