%chk=C1dCCdCSCdCC2dCqCdCCSCdNCdC1rS2.chk
%NProcShared=20
# opt freq b3lyp/6-31g(2df,p)

Title Card Required 

0  1
C           5.95609         1.34856        -0.25623
C           3.84658         0.64842        -0.13598
C           3.52617         2.05023        -0.39243
C           4.71045         2.14859        -0.41158
S           5.54568         3.52583        -0.66593
C           7.04307         2.89654        -0.55008
C           8.08966         3.93766        -0.74285
C           9.30969         3.53821        -0.67174
C          10.00118         4.33673        -0.81708
C          11.48521         4.60057        -0.86231
C          12.17686         5.65968        -1.04235
C          12.58493         4.74323        -0.98299
S          14.45503         6.30581        -1.18674
C          15.10279         4.86632        -0.91125
N          13.27679         3.64153        -0.63483
C          10.88411         3.01957        -0.55997
C           8.44442         2.25276        -0.39077
S          10.02440         1.64515        -0.32464
H           3.87792         0.78602        -0.15699
H           2.90402        -0.85772         0.14637
H           2.55585         2.30376        -0.43924
H           5.46848         0.29733        -0.06893
H           7.90258         1.20505        -0.23666
H           7.63781         4.68476        -0.88077
H          12.03747         2.94087        -0.56274
H          12.43698         6.35536        -1.19036
H          14.08605         4.13430        -1.71081
H          14.07471         4.48514         0.07585
H          17.08058         5.05253        -0.94867
H          12.87367         3.31850        -0.61748
H           6.70605         1.52146        -0.30370

