%chk=CC1dCC2dCCdCCdCdNCdCCdS2SC1.chk
%NProcShared=20
# opt freq b3lyp/6-31g(2df,p)

Title Card Required 

0  1
C           1.18764         0.11737        -0.06226
C           2.74910         0.25171        -0.14344
C           3.34551         1.47314        -0.16332
C           4.77977         1.84871        -0.23249
C           5.38994         2.81487         0.43802
C           6.81008         2.66808         0.75756
C           7.66692         3.67964         0.81713
C           9.14529         3.47251         0.72614
C           9.79389         4.53354         0.44977
N           9.87895         5.55943        -0.16638
C           8.75510         5.60172        -1.03006
C           8.12956         4.52199        -1.76748
C           7.59687         2.69824        -1.71023
S           5.76192         1.33083        -1.62625
S           5.61454        -0.70813        -0.51924
C           3.51764        -1.06070        -0.20156
H           0.69406         1.10015        -0.04846
H           0.81178        -0.41459         0.82826
H           0.76810        -0.41373        -0.93080
H           2.68567         2.31787        -0.04041
H           4.84767         3.74488         0.32685
H           7.28834         1.68736         0.66805
H           7.20371         4.62380         0.48871
H           9.49398         2.60166         0.14622
H           8.81487         6.64631        -1.41268
H           9.06792         4.48055        -2.40318
H           8.31355         2.07985        -2.26435
H           3.26966        -1.66847         0.71146
H           3.13932        -1.67216        -1.03747

