%chk=CC1dCCdCdCqNdOrNdNNdNC1.chk
%NProcShared=20
# opt freq b3lyp/6-31g(2df,p)

Title Card Required 

0  1
C           1.63377        -0.26052         0.11360
C           3.21420        -0.26384         0.71836
C           3.36077         0.91539         1.31470
C           4.63033         1.52758         1.20159
C           5.29351         1.59218         2.32335
C           5.85005         1.72265         3.44821
N           5.55530         2.81219         4.16217
O           4.62712         3.49508         3.69556
N           7.07964         1.13653         3.56042
N           6.97835        -0.09326         3.75279
N           6.87855        -0.92254         2.59412
N           6.02879        -1.16125         1.66529
C           4.75452        -1.01851         0.60114
H           0.96227         0.17429         0.89635
H           1.11820        -1.18906        -0.16412
H           1.38882         0.47468        -0.70541
H           2.56256         1.22882         1.97801
H           5.21724         1.40237         0.29478
H           4.68783        -2.00395         0.12828
H           5.25666        -0.47556        -0.21066

