%chk=CCc1cccc2cqc1dOrdCCdCCdCCd2.chk
%NProcShared=20
# opt freq b3lyp/6-31g(2df,p)

Title Card Required 

0  1
C           1.10831        -0.08618        -0.01138
C           2.67123        -0.15447        -0.15697
C           3.70227        -0.81181        -1.48040
C           4.99723        -0.81168        -1.39995
C           5.66940        -1.48820        -2.47967
C           6.83362        -1.62370        -3.09945
C           7.08266        -2.48481        -4.94431
C           6.12848        -1.98328        -4.19509
C           4.06913        -1.41841        -3.21279
O           2.82646        -1.72055        -3.28615
C           7.97520        -2.25724        -4.27190
C           9.67305        -2.60652        -5.03644
C           9.92180        -3.30583        -6.52602
C          11.35557        -3.52738        -6.74206
C           9.86845        -3.63336        -6.81600
C           7.88914        -3.18515        -6.35414
H           0.74516         0.39302         0.93819
H           0.68530        -1.08884        -0.01115
H           0.68495         0.50862        -0.81788
H           2.96472        -0.62655         0.82283
H           2.96482         0.90749         0.04978
H           5.36147        -0.35140        -0.53124
H           4.87406        -2.38120        -3.68754
H           7.50171        -1.24340        -2.33435
H           8.76229        -2.70154        -5.09900
H          10.72384        -2.46141        -4.70883
H           9.24707        -4.03803        -7.95665
H          12.42065        -3.28425        -6.38770
H          10.71107        -4.11013        -7.94247
H           6.73757        -3.35124        -6.28267

