%chk=CdC1NdC2CdCCdCCdCc3cqc[nH]ssc31rCdC2.chk
%NProcShared=20
# opt freq b3lyp/6-31g(2df,p)

Title Card Required 

0  1
C           3.01425         0.31757         0.24240
C           5.19464         0.60388         0.58142
N           4.19786         1.14815         1.22593
C           5.93152         1.31182         1.41973
C           5.18295         1.92017         2.14010
C           6.61352         1.78461         1.97958
C           6.75795         2.71353         3.07955
C           8.20288         2.87260         3.26792
C           8.81528         3.64778         4.18583
C           8.68169         2.85374         3.24558
C           9.53680         2.13478         2.39423
C          11.21446         3.11435         3.55418
C          13.05993         3.37211         3.85940
N          13.17309         2.53039         2.86269
S          12.83937         1.46132         1.59676
S          10.17066         0.84669         0.86895
C           7.59731         1.16279         1.24325
C           9.97559         2.79218         3.17269
C           8.01542         1.98582         2.21784
H           1.18185         0.53626         0.50136
H           1.35102        -0.25329        -0.43359
H           4.55613         2.34131         2.63879
H           8.58289         1.00712         1.05892
H           6.63695         3.26580         3.73351
H           8.93275         1.58278         1.74059
H           8.81748         4.19327         4.83177
H          10.52034         2.18095         2.44891
H          14.62815         3.40325         3.89627
H          12.25754         2.52188         2.85261
H          11.15931         3.63984         4.17643
H           6.66363         0.89564         0.92691

