%chk=Cdc1cc2c3cccc-3nc1dCCqdOrNdCCdCCdC2.chk
%NProcShared=20
# opt freq b3lyp/6-31g(2df,p)

Title Card Required 

0  1
C           2.16274        -0.94786        -0.39678
C           3.73144        -1.38053        -0.85606
C           3.48917         0.44566        -0.53179
C           4.51252         1.04260        -0.02092
C           5.17930         2.16496        -0.32520
C           5.03245         3.46597         0.17441
C           6.14680         4.16805        -0.30896
C           6.89035         2.98506        -1.05494
C           6.37255         0.98521        -1.19808
N           6.41075        -0.79566        -1.20871
C           5.47303        -2.57305        -0.97561
C           5.95018        -4.32528        -0.60853
C           5.63706        -6.26718         0.31959
O           5.46786        -7.52153         0.56754
N           4.54322        -5.78871         0.81192
C           5.03442        -4.72143         1.27551
C           4.42672        -3.46256         1.06198
C           5.44902        -2.39452         1.28019
C           5.09074        -1.07117         0.98802
C           5.34668         0.14588         0.62059
H           1.41732         0.26280        -0.27780
H           0.98560        -1.08115         0.01973
H           2.71680         1.50231        -0.43473
H           4.28789         3.92511         0.88186
H           6.12714         5.43540        -0.03060
H           7.53538         3.97179        -1.55325
H           6.89485        -5.46524        -0.05636
H           6.15285        -4.42280         1.35770
H           3.48260        -3.59301         0.43675
H           6.51415        -2.28392         0.82653
H           4.22082        -1.58034         0.88140
H           6.39174         0.23677         0.51992

