%chk=CdCC1dC2[C]CdCdC1NdC2SS.chk
%NProcShared=20
# opt freq b3lyp/6-31g(2df,p)

Title Card Required 

0  1
C           1.08292        -0.44674        -0.08552
C           2.39977        -0.07279         0.03304
C           3.14462         0.73247        -0.98519
C           3.08941         2.16538        -0.90237
C           4.03732         2.81959        -1.80303
C           4.29901         2.08466        -3.00617
C           3.55694         0.91818        -3.28238
C           2.56215         0.71933        -2.29620
N           1.37110         1.54413        -2.24936
C           1.66108         2.31032        -1.21408
S           0.68270         2.98674         0.09168
S          -1.34905         2.69965        -0.17109
H           0.57062        -0.98652         0.68608
H           0.47268        -0.18007        -0.94025
H           2.94098        -0.38492         0.90871
H           4.98109         2.43082        -3.78415
H          -1.78587         1.93611         0.86839

