%chk=CdCC1dCqOCrCqdSrCqOrdNCdCN[SH]dCdN1.chk
%NProcShared=20
# opt freq b3lyp/6-31g(2df,p)

Title Card Required 

0  1
C           1.86947        -0.59662        -0.27187
C           3.46960        -1.17689        -0.74491
C           5.17725        -2.13577        -1.47976
C           4.89854        -1.11436        -0.53542
O           5.46978        -0.04100         0.08402
C           4.60624         0.96339         0.69732
C           5.48410        -2.27062        -1.26418
S           4.33071        -3.93727        -2.23592
C           7.12902        -1.63270        -1.08381
O           7.69360        -0.72718        -0.41389
N           7.65463        -2.65281        -0.62842
C           8.71930        -3.22960        -1.10461
C           8.47073        -4.66798        -1.64860
N           9.98349        -4.10287        -2.03475
S          10.03917        -4.63002        -3.43918
C           8.19603        -3.43595        -3.18086
N           6.79008        -2.98064        -2.59139
H           0.98638         0.44876         0.38811
H           0.69053        -0.89289        -0.42983
H           3.11554        -0.01497         0.08782
H           5.25545         1.68714         1.13436
H           3.98302         0.54786         1.52387
H           3.98359         1.50509        -0.05495
H           6.92462        -0.32554        -0.06466
H           9.59906        -2.40018        -1.30180
H           8.50195        -5.40465        -2.90163
H          10.92185        -3.59055        -1.92968
H          11.33670        -5.38026        -4.31132

