%chk=CdCC1dC[SH]d[SH]CdCCdCCdC1OC.chk
%NProcShared=20
# opt freq b3lyp/6-31g(2df,p)

Title Card Required 

0  1
C           1.51120        -0.28647        -0.34104
C           3.04907        -0.64897        -0.87338
C           4.33064        -1.40672        -2.23078
C           4.68394        -0.70324        -1.05946
S           5.83716        -0.57942        -2.16163
S           7.49160        -0.80490        -1.62715
C           8.06361        -1.22764        -3.12485
C           9.34261        -1.42735        -3.39637
C           9.46139        -1.47963        -4.98413
C           9.61799        -2.65703        -4.39894
C           7.45612        -2.86517        -4.28257
C           5.78966        -2.31038        -3.60927
O           3.76881        -2.16399        -3.62963
C           1.79868        -1.82764        -3.68921
H           0.76381         0.25001         0.73435
H           0.53034        -0.49518        -0.81483
H           3.13154         0.05422         0.37670
H           5.11243        -0.19912        -0.19540
H           5.19652        -0.44775        -3.51322
H           7.56196        -1.93649        -1.02150
H           7.29907        -1.19298        -4.12502
H          10.15988        -1.35567        -2.66592
H           9.04965        -2.33964        -5.98404
H          11.13865        -2.23476        -4.15613
H           8.98014        -3.28215        -4.73194
H           0.39178        -1.62302        -3.11888
H           0.94231        -2.84093        -3.57114
H           0.94613        -1.12534        -4.40044

