%chk=CdNC1dCCdCCdCCdCdCqSrSSS1.chk
%NProcShared=20
# opt freq b3lyp/6-31g(2df,p)

Title Card Required 

0  1
C           2.03694        -1.00406        -0.17222
N           3.14873        -1.67904         0.20746
C           4.33445        -2.24332        -0.65358
C           4.98278        -1.16073        -1.07151
C           5.42974        -1.34389        -2.38397
C           6.74859        -1.39541        -2.39501
C           7.34620        -2.28114        -3.30500
C           8.66594        -2.36114        -3.36107
C           9.19426        -3.23117        -4.36062
C          10.51130        -3.32622        -4.27583
C          11.30708        -3.74051        -3.40405
S          12.69345        -2.69643        -3.07465
S          10.27395        -4.95523        -2.20023
S           8.30136        -4.04444        -0.93149
S           5.75235        -3.91129        -0.76266
H           1.56830        -0.13671         0.45102
H           1.27071        -1.18305        -0.99604
H           4.86844        -0.21331        -0.56405
H           4.80088        -1.96503        -3.03719
H           7.28012        -1.05954        -1.50166
H           6.76351        -3.03922        -3.81917
H           9.25941        -1.94171        -2.53140
H           8.72124        -4.21152        -4.43987
H          12.09551        -1.47679        -3.06672

