%chk=CN1CdCCdCCdC[SH]d[SH]CqdOrC1.chk
%NProcShared=20
# opt freq b3lyp/6-31g(2df,p)

Title Card Required 

0  1
C           2.16272         0.05499        -0.04728
N           4.10566        -0.08864        -0.59198
C           3.43019        -1.27614        -0.77411
C           4.56536        -1.74074        -0.69635
C           5.27830        -2.60735        -1.32498
C           6.54384        -2.64341        -1.12448
C           7.16180        -3.64502        -1.78338
C           8.33874        -3.82059        -1.22465
S           9.34910        -4.86358        -2.46545
S           9.99961        -3.18557        -2.11275
C           8.14943        -1.37062        -1.72272
O           9.54733        -1.68897        -1.42094
C           6.31743        -0.45260        -0.83648
H           1.11014        -0.81472        -0.45568
H           1.16989         0.89229        -0.50655
H           1.21272         0.06100         1.01169
H           2.55265        -1.87801        -1.02640
H           5.12942        -1.35840         0.10616
H           4.66342        -3.24138        -1.79508
H           7.20990        -1.97231        -0.45059
H           6.77030        -4.35726        -2.43978
H           8.75893        -2.84215        -0.35018
H           9.34453        -4.76119        -3.84435
H          11.36978        -3.98312        -1.33039
H           5.84561         0.63595        -0.75081
H           6.06239        -0.07154         0.45191

