%chk=COc1ccc2cqsnnn1rdCCdCCdCCd2.chk
%NProcShared=20
# opt freq b3lyp/6-31g(2df,p)

Title Card Required 

0  1
C           1.02218        -0.05990         0.14289
O           2.51164        -0.05651         0.53441
C           3.26738        -0.04894         1.84479
C           4.86563        -0.05489         1.30974
C           5.90422         0.05437         2.20248
C           7.53068         0.30345         2.89170
C           7.38228        -0.09994         4.26084
S           6.14168         0.06406         5.50966
N           4.76137        -0.01166         4.64110
N           3.52015         0.00255         4.64296
N           2.76888        -0.02658         3.09422
C           8.52165        -0.74663         4.43419
C           9.28811        -0.45642         5.53038
C          10.53718        -0.58961         4.97527
C          11.09431         0.55376         5.49028
C          10.58433         0.99609         4.03807
C           9.19137         0.69774         2.80946
H           0.76246        -0.07335        -0.96354
H           0.56238         0.85308         0.51762
H           0.56227        -0.96330         0.53975
H           4.96224        -0.04566         0.23872
H           5.19329        -0.01937         2.98645
H           9.30371        -1.04898         3.54670
H           8.89016         0.02259         6.46694
H          11.19158        -0.75530         3.75190
H          11.02816         0.11775         6.67144
H          11.95381         0.58008         4.27793
H           9.07102         0.16151         1.65426

