%chk=CSC1dCCdCCdCNdNCdCCqSrdC1.chk
%NProcShared=20
# opt freq b3lyp/6-31g(2df,p)

Title Card Required 

0  1
C           1.36484        -0.04395        -0.25656
S           3.51879        -0.67524        -1.50316
C           4.83610        -1.67297        -3.47338
C           5.02744        -0.89384        -1.93484
C           5.67554        -1.45216        -3.03735
C           6.93144        -1.53099        -3.19302
C           7.69968        -2.06295        -4.24348
C           8.82128        -2.18067        -4.47595
N           9.72564        -2.49365        -5.09397
N          10.22735        -2.91722        -5.93041
C           9.02653        -3.51495        -7.11074
C          10.50345        -3.34063        -6.76651
C           8.33293        -3.12257        -6.33591
S          10.75439        -3.76914        -7.61268
C           6.43846        -2.55158        -5.20837
H           0.78582         0.51530         0.84779
H           0.72384        -0.95866        -0.10458
H           0.72384         0.61987        -0.90396
H           5.59444        -0.45416        -1.06660
H           5.81914        -2.01495        -4.14870
H           7.42361        -1.16066        -2.46172
H           7.41244        -2.80319        -5.70524
H           9.34715        -1.84893        -3.82086
H           9.36913        -4.13308        -8.33137
H          12.21887        -3.37155        -6.82757
H          12.33512        -4.35882        -8.77713
H           4.79934        -2.38732        -4.88402

