%chk=NC12CdS1C1dCC1dCCdC2SCCdS.chk
%NProcShared=20
# opt freq b3lyp/6-31g(2df,p)

Title Card Required 

0  1
N           0.90529        -0.31848         0.22600
C           2.37495        -0.24158         0.26925
C           3.09148        -1.55954         0.30675
S           3.10554        -0.72882         1.83576
C           4.72234        -0.52114         2.23111
C           5.15373         0.26809         3.25458
C           4.23493         0.80172         2.42596
C           3.64200         1.93533         2.14433
C           3.18971         2.12895         0.79498
C           2.83818         1.17495        -0.11407
S           2.44643         2.01232        -1.62923
C           1.77861         0.85524        -2.79523
C           1.53649         1.55275        -4.11658
S           0.89732         0.70040        -5.41261
H           0.48736        -1.22070         0.03421
H           0.55700         0.33646        -0.47257
H           2.70458        -2.60063         0.18233
H           5.89045         0.63392         3.91969
H           3.71010         2.76885         2.83205
H           3.19365         3.18605         0.54171
H           0.81378         0.48564        -2.44761
H           2.48801         0.03927        -2.92563
H           1.76275         2.63246        -4.19887

