%chk=Nc1cccc2ccncccccccn-2n1.chk
%NProcShared=20
# opt freq b3lyp/6-31g(2df,p)

Title Card Required 

0  1
N           1.42840         0.27699        -0.07549
C           3.35189         0.58737        -0.10658
C           3.18371        -1.18359        -0.08549
C           4.41587        -1.57163        -0.07948
C           5.56524        -0.67693        -0.07526
C           5.92542         0.71125        -0.13814
C           7.21408         1.06005         0.06037
C           8.00376         0.14237        -0.07891
N           9.13047         0.55293         0.02671
C          10.15279        -0.00572        -0.10649
C          11.12198         0.72673         0.37569
C          12.33726         0.23191         0.11743
C          12.85828         1.53680         0.76374
C          13.20960         1.30834        -0.47359
C          11.25670         2.27230        -0.77499
C           9.25484         2.37473        -0.64827
N           7.01276         2.11721        -0.46736
N           4.93089         1.59380        -0.22397
H           0.62275        -0.73944        -0.07971
H           0.54226         0.92330        -0.08254
H           2.35856        -1.99473        -0.07868
H           4.59873        -2.63124        -0.09030
H           6.40019        -1.27766        -0.07511
H           8.15185         1.84100         0.45224
H           7.87722        -0.78011        -0.09814
H          10.31658        -0.94989        -0.12565
H          10.61307         2.10536         0.64805
H          12.81212        -0.76731        -0.08489
H          13.51358         2.75116         0.31859
H          14.43699         0.21219        -0.17250
H          12.91677         2.05828        -0.90525
H           8.25584         3.30987        -0.20563

