%chk=Nc1cccc2ccqc3cqc1rdCCdCCdCd3rS2.chk
%NProcShared=20
# opt freq b3lyp/6-31g(2df,p)

Title Card Required 

0  1
N           2.52485        -0.05551         0.21313
C           4.63672        -0.30206         0.55692
C           3.26344        -0.78856         1.23527
C           4.43754        -0.96343         1.47911
C           5.26153        -1.61689         2.39028
C           6.72334        -1.67802         2.47552
C           7.23791        -2.33067         3.38554
C           8.38058        -1.91876         2.81119
C           9.64952        -2.66235         3.84802
C           8.66270        -1.61098         2.38203
C           6.65721        -0.75630         1.19030
C          10.33792        -2.43226         3.52720
C          12.54936        -2.91532         4.20076
C          13.65415        -3.88966         5.55935
C          12.52360        -3.72330         5.32739
C          11.13336        -3.32440         4.77118
S           8.43448        -0.57458         0.93692
H           1.09585        -0.40869         0.70560
H           1.18121         0.41875        -0.44816
H           2.66730        -1.27071         1.90758
H           5.29930        -1.15811         1.75057
H           4.74686        -2.08258         3.03962
H           6.90825        -2.85423         4.11558
H           5.66020         0.02183         0.10529
H           9.85611        -3.46772         4.97101
H          13.81278        -2.85012         4.10984
H          13.50746        -4.73853         6.74298
H          14.24360        -3.85827         5.51559

