%chk=Nc1cc2cqcccc3cc-3c1dOrdCCd2.chk
%NProcShared=20
# opt freq b3lyp/6-31g(2df,p)

Title Card Required 

0  1
N           0.32420        -0.06714        -0.03572
C           2.19764         0.13829        -0.32442
C           3.29674         0.60133        -0.99399
C           4.70103         0.68356        -1.11386
C           5.39867         1.39854        -2.12957
C           4.92448         2.21186        -3.28391
C           3.65331         2.36413        -3.50003
C           2.52727         2.82200        -4.14995
C           1.47306         2.35818        -3.49149
C           0.09521         2.24000        -3.32423
C           0.96987         1.60703        -2.42591
C           1.16426         0.60043        -1.00662
O           1.90713        -0.23001         0.16289
C           6.54761         1.01035        -1.57834
C           5.83307         0.28781        -0.55242
H          -0.47661         0.31018        -0.58501
H           0.36063        -0.65568         0.78623
H           2.85117         1.09910        -1.70570
H           5.52592         2.71334        -3.99576
H           3.17808         1.86197        -2.78711
H           2.70457         3.43319        -5.01761
H          -0.01958         2.89023        -4.24653
H           7.49837         1.31834        -2.01548
H           5.79302        -0.34716         0.34886

