%chk=NC1dCCdCCdCdCSSCdCSCdCSC1dO.chk
%NProcShared=20
# opt freq b3lyp/6-31g(2df,p)

Title Card Required 

0  1
N           3.41866         0.41479         1.33324
C           5.38824         0.99338         2.20805
C           3.80564         1.12757         1.30712
C           4.87185         1.39039         0.49033
C           5.33276         2.57552         1.08071
C           6.76687         2.65592         0.98878
C           7.37591         3.32282         1.90225
C           8.01390         3.90754         2.83533
S           9.60933         3.91250         2.48254
S          10.38464         5.44264         4.19893
C          12.10963         5.16435         4.00174
C          12.23028         6.12636         4.96501
S          14.12412         5.65876         4.85816
C          13.59835         5.59845         6.42990
C          12.33142         4.15182         5.77333
S          10.06893         2.79668         4.51470
C           7.66700         1.77052         3.28979
O           7.15600         0.65885         2.22435
H           1.84362         0.63342         0.84229
H           2.14752        -0.11144         0.37499
H           2.61097         1.87115         1.31210
H           5.16216         0.48149        -0.06593
H           4.70748         2.77180         2.02146
H           7.29182         1.50863         0.72645
H           7.62920         4.78343         3.15121
H          12.73009         4.00177         4.19216
H          12.42607         6.74490         5.80907
H          14.41630         7.12366         6.92225
H          13.98738         4.57575         6.33739

