%chk=NC1dCCdc2ccccc2dNCdCC1dS.chk
%NProcShared=20
# opt freq b3lyp/6-31g(2df,p)

Title Card Required 

0  1
N           1.16047         1.16583        -0.08903
C           2.36033         0.53632        -0.23351
C           3.39754         0.92119        -0.98817
C           4.71851         0.29015        -1.02509
C           5.31518        -0.33190        -2.06160
C           6.76125        -0.47465        -2.08003
C           7.41827        -0.65493        -3.24330
C           6.69363        -0.84664        -4.47974
C           5.39492        -0.95149        -4.50447
C           4.54208        -0.87260        -3.28279
N           3.40059        -1.38377        -3.35547
C           2.49521        -1.70614        -2.33642
C           1.83718        -1.63641        -1.20121
C           2.36103        -0.94644         0.08242
S           2.33636        -1.65715         1.59549
H           0.43462         0.68531        -0.61706
H           0.81089         1.04411         0.87632
H           3.31981         1.85078        -1.55135
H           5.27589         0.47375        -0.12542
H           7.32006        -0.35131        -1.16751
H           8.49765        -0.67084        -3.27877
H           7.29870        -0.98946        -5.38749
H           4.84927        -1.23042        -5.43382
H           3.33772        -2.06752        -1.75347
H           0.75511        -1.71469        -1.19007

