%chk=NC1dCdCdCqC[SH]dSrCCdCCdC1.chk
%NProcShared=20
# opt freq b3lyp/6-31g(2df,p)

Title Card Required 

0  1
N           1.55955         0.02320        -0.87098
C           2.82383         0.70944        -1.37928
C           2.80363         1.85699        -0.89967
C           3.48400         2.90275        -1.05995
C           4.30219         3.40032        -1.87073
C           5.97863         2.94351        -1.99141
S           6.59858         1.82175        -0.65754
S           8.56660         2.05966        -0.71792
C           3.51518         3.80542        -3.14417
C           4.56890         4.45494        -3.96446
C           4.40459         3.49521        -4.87517
C           4.51122         1.86002        -4.06165
C           3.98384         0.91339        -2.80622
H           0.80194         0.74132        -0.82228
H           1.39804        -0.35576         0.13173
H           6.48401         3.90079        -1.90834
H           6.46297         2.54042        -2.92661
H           6.50848         0.60602        -1.19314
H           2.59917         4.36791        -3.03514
H           2.88760         2.92735        -3.77815
H           5.62351         4.50168        -3.64354
H           3.62796         4.05489        -5.48313
H           5.55921         2.22840        -4.49130
H           4.71504         0.61740        -1.93239

