%chk=NC1dCCqdSrCdCCdCCdCCdCCdC1.chk
%NProcShared=20
# opt freq b3lyp/6-31g(2df,p)

Title Card Required 

0  1
N           3.06276        -0.51650         0.06221
C           5.27290        -1.21086         0.20333
C           3.38871        -1.28460         0.21833
C           4.74308        -1.25311         0.21193
S           5.96485         0.66954        -0.17886
C           5.14066        -2.86974         0.54051
C           6.29590        -2.83183         0.53281
C           6.95728        -4.05196         0.78080
C           8.09090        -3.76977         0.72345
C           9.20581        -4.90835         0.95486
C          10.99151        -3.95705         0.76151
C          10.61530        -6.11552         1.20023
C          11.18527        -4.81300         0.93549
C           9.54718        -3.28628         0.62517
C           7.59905        -2.15735         0.39571
H           1.41547        -0.72825         0.10525
H           1.64786         0.34084        -0.11205
H           2.59289        -2.10231         0.38453
H           4.61687        -3.51468         0.67160
H           7.13836        -1.11407         0.18366
H           6.80808        -4.93060         0.95939
H           8.98902        -2.17584         0.39947
H           8.89699        -5.91002         1.15846
H          11.99309        -3.61889         0.69278
H          11.20801        -7.05114         1.39039
H          12.83247        -5.21952         1.01811
H          10.43519        -4.90589         0.95437
H           6.16271        -1.27686         0.21675

