%chk=NdC1CdCNdCCdNNdNCdC2CdCC12N.chk
%NProcShared=20
# opt freq b3lyp/6-31g(2df,p)

Title Card Required 

0  1
N           5.32249         2.66316        -0.10556
C           7.14733         3.57699        -0.51380
C           5.03339         2.42698        -0.77306
C           5.39698         0.91578        -1.00572
N           5.55150         2.24120        -1.97003
C           6.86489         2.01569        -1.84436
C           7.42816         3.42893        -2.28643
N           8.55652         3.22116        -1.80244
N           9.00505         3.94759        -2.78891
N          10.35278         3.74500        -2.59140
C          10.58236         5.16854        -3.35861
C          11.36599         4.98771        -2.39149
C          13.12208         4.53609        -2.25676
C          11.91491         4.97045        -1.55521
C           9.51984         4.66664        -1.10908
N          11.26655         6.21733        -1.56850
H           4.00359         1.55706        -0.12935
H           3.28050         2.12927        -0.93354
H           4.93584         0.27887        -0.12985
H           7.12241         1.41728        -0.74217
H           6.67668         4.29179        -2.18604
H          10.61856         6.39899        -3.27807
H          13.67073         3.66750        -1.85151
H          13.43336         5.37703        -2.31354
H          12.45508         6.96054        -2.35715
H          12.66657         6.94992        -1.62239

