%chk=NdC1CdCSC2dC3CdCSCdC3S2dC1.chk
%NProcShared=20
# opt freq b3lyp/6-31g(2df,p)

Title Card Required 

0  1
N           0.97744         0.07384         0.04865
C           2.24090        -0.13461         0.09553
C           2.90222        -1.44076         0.15533
C           4.19024        -1.76426         0.01757
S           5.58229        -0.84717        -0.54942
C           5.47323         0.87721         0.31235
C           6.31760         1.36047         1.28933
C           6.26600         2.75948         2.13876
C           6.38188         2.77345         3.48830
S           6.82239         1.39940         4.44859
C           6.42906         0.11207         3.32610
C           5.75859         0.31089         2.15592
S           4.18637         1.13168         1.66061
C           3.07119         1.05238         0.30056
H           0.44036        -0.79964         0.03678
H           2.18385        -2.21972         0.39673
H           4.36949        -2.83295         0.18288
H           5.63386         3.54548         1.71640
H           5.98909         3.61505         4.06564
H           7.25448        -0.60256         3.28388
H           2.64982         1.97073        -0.16339

