%chk=NdC1CdCCdNNdCNdCCdCCdCSCdN1.chk
%NProcShared=20
# opt freq b3lyp/6-31g(2df,p)

Title Card Required 

0  1
N           4.24314        -1.49014        -0.72280
C           6.39070        -1.87211        -0.90929
C           4.16250        -1.60242        -0.77761
C           5.67818        -1.20078        -0.58153
C           5.13372        -2.86270        -1.39291
N           6.72175        -3.15708        -1.53664
N           7.07546        -4.03561        -1.96555
C           8.42116        -4.20415        -2.04783
N           8.64626        -5.27479        -2.57054
C           9.42480        -4.52699        -2.20545
C          10.64641        -5.94855        -2.89949
C          11.59279        -5.32852        -2.59677
C          13.06260        -6.83739        -3.33344
C          14.72510        -6.76453        -3.29786
S          12.92452        -5.95209        -2.90122
C          10.65551        -4.08127        -1.98784
N           8.65998        -2.95793        -1.43940
H           2.52920        -0.99296        -0.48007
H           2.58429        -2.08036        -1.01095
H           5.01454        -0.23554        -0.11028
H           4.37991        -3.39316        -1.65189
H           9.72196        -2.88921        -1.40585
H          10.69441        -3.09210        -1.50491
H          10.61765        -6.80720        -3.31870
H          13.48600        -4.76421        -2.32127
H          12.71769        -7.93521        -3.86941
H          15.36675        -5.92386        -2.88743
H          12.46604        -4.51654        -2.20035

