%chk=Ndc1cccc2cqc1rNdCCdCSCdCCdC2.chk
%NProcShared=20
# opt freq b3lyp/6-31g(2df,p)

Title Card Required 

0  1
N           1.21446         0.00958         0.06044
C           2.65915        -0.00176         0.06395
C           3.17697        -1.30492         0.46680
C           4.61831        -1.79667         0.61881
C           6.29939        -2.76178         0.91716
C           8.30713        -3.05416         1.00754
C           6.47168        -1.71741         0.59431
C           4.79359        -0.27910         0.14968
N           7.90089        -3.22882         1.06154
C           9.13492        -4.60865         1.48809
C          11.70554        -4.56159         1.47354
C          10.96512        -5.76776         1.84641
S          13.64620        -4.95961         1.59658
C          12.83565        -6.51294         2.07677
C          14.30437        -6.70408         2.13586
C          12.31470        -5.82055         1.86265
C          10.44871        -4.28544         1.38821
H           0.60589        -0.80602         0.31257
H           2.55178        -2.06239         0.70096
H           5.92890        -0.60786         0.25131
H           4.88700        -3.25782         1.07050
H           3.80213         1.11101        -0.28005
H           8.92697        -5.60311         1.79551
H          11.93231        -3.67493         1.19944
H          11.13001        -6.80385         2.16670
H          13.19726        -8.09681         2.56640
H          15.95363        -6.83233         2.17550
H          13.84978        -7.08474         2.25357
H           9.73903        -2.87515         0.95221

