%chk=NdC1CdCCqdSrSNSSNCdCS1.chk
%NProcShared=20
# opt freq b3lyp/6-31g(2df,p)

Title Card Required 

0  1
N           1.01315        -0.04532         0.09519
C           2.29877        -0.00807         0.02875
C           3.13455         1.19775        -0.11403
C           2.90377         2.25727         0.67467
C           3.76004         3.45935         0.52943
S           3.66417         4.54492        -0.74366
S           4.84746         3.71763         1.89356
N           5.84680         2.39770         1.75408
S           6.06455         1.71931         3.25002
S           7.30016         0.16991         2.69922
N           6.28095        -1.13558         2.50918
C           5.40583        -1.13492         1.45006
C           4.09045        -1.39342         1.47400
S           3.18194        -1.51062         0.00596
H           0.61191         0.89092         0.01953
H           3.96002         1.16082        -0.81699
H           2.14284         2.26870         1.44664
H           6.75532         2.67801         1.37690
H           5.90177        -1.53211         3.36652
H           5.89951        -0.91155         0.50569
H           3.56164        -1.54607         2.40994

