%chk=Ndc1nc2c3cccqcccc1-2rdCNdCCdNNdCCd3.chk
%NProcShared=20
# opt freq b3lyp/6-31g(2df,p)

Title Card Required 

0  1
N           1.81975         0.10464         0.13945
C           3.55224        -0.03407        -0.02300
N           3.73285        -0.97930        -1.16764
C           5.32520        -1.41434        -1.69216
C           6.89548        -2.49756        -3.00257
C           6.68258        -1.60665        -1.92675
C           7.58563        -2.19811        -2.64206
C           8.94908        -2.15872        -2.59402
C           9.42958        -1.38596        -1.65896
C           8.88280        -0.63140        -0.74750
C           7.59767         0.12810         0.17128
C           5.70693        -0.08603        -0.08227
C           9.90369        -2.76178        -3.32360
N          11.04719        -2.51219        -3.02168
C          10.97730        -3.25631        -3.92164
C          12.68096        -3.51072        -4.22926
N          11.92306        -4.24985        -5.12321
N          12.93410        -4.08236        -4.92044
C          11.00083        -4.15755        -5.01116
C           8.60328        -3.48644        -4.19890
H           0.68668        -0.44705        -0.52595
H           6.77405        -0.98003        -1.16931
H           7.64465        -3.04257        -3.66474
H          10.47207        -1.46151        -1.75107
H           7.90833        -0.63751        -0.75399
H           9.19917         0.36074         0.44740
H           9.74502        -3.71752        -4.47954
H           9.91560        -4.37158        -5.27037
H          13.64243        -3.08801        -3.71803
H          12.34435        -5.00416        -6.03526
H           6.83405        -3.53187        -4.25467

