%chk=NdC1CdCdNCdCNdCC2dCCqdNrCqdCCdC1rCCNN2.chk
%NProcShared=20
# opt freq b3lyp/6-31g(2df,p)

Title Card Required 

0  1
N           2.78836        -0.05091        -1.39839
C           4.42096         0.09635        -1.56770
C           3.77364         0.39052         0.23625
C           4.75498         0.43771         1.00327
N           5.88325         0.49558         1.20829
C           6.49581         1.04008         0.09661
C           7.82530         1.06524        -0.01324
N           8.48114         1.66698        -1.06543
C           9.77970         1.68077        -1.07573
C          10.60538         2.35834        -2.15197
C          11.63807         1.57129        -2.51547
C          12.26401         1.74301        -3.82300
N          13.47079         2.25302        -3.96248
C          10.92358         1.09492        -4.80641
C           9.62443         0.13729        -4.50414
C           7.69825         0.01228        -3.96365
C           6.04741         0.01936        -2.90803
C          10.10250         2.22364        -5.04772
C          10.48623         3.63858        -5.10800
N          10.82173         4.20838        -3.79477
N          10.14829         3.56758        -2.70210
H           1.90792         0.07908        -0.35604
H           2.78647         0.57995         1.14107
H           5.93306         1.49724        -0.73367
H           8.36454         0.61773         0.81329
H          10.39060         1.19462        -0.29113
H          11.83680         0.61320        -2.07032
H          13.95753         2.55495        -3.06315
H          10.69531        -0.20320        -5.46119
H           8.13254        -0.16199        -5.26617
H           4.97479        -0.58407        -3.18832
H           9.56495         2.03454        -4.13212
H           9.52304         1.92666        -5.91021
H           9.58059         4.09564        -5.51152
H          11.30341         3.75340        -5.82705
H          10.65441         5.21407        -3.84350
H           9.30555         3.96947        -2.27351

