%chk=NdNC1dC2CqCdSrdCdCdC2S1.chk
%NProcShared=20
# opt freq b3lyp/6-31g(2df,p)

Title Card Required 

0  1
N           0.84084         0.29052        -0.27097
N           1.98606        -0.14984        -0.14140
C           2.78184        -0.34308        -1.26750
C           3.91196        -1.01233        -1.35008
C           4.82934        -1.75668        -0.72200
C           4.91802        -2.08960         0.66717
S           3.90956        -1.60996         1.92540
C           5.65953        -2.17240        -1.75769
C           5.18541        -1.69140        -2.97660
C           4.10422        -0.98509        -2.65583
S           2.71562        -0.08426        -2.99154
H           0.39194         0.29064         0.65704
H           5.76125        -2.74710         0.92332

