%chk=NNdc1[c]c2ccnccccc1-2.chk
%NProcShared=20
# opt freq b3lyp/6-31g(2df,p)

Title Card Required 

0  2
N           1.34283         0.08230         0.08065
N           2.92742         0.05127         0.07298
C           3.85087         0.21313         1.02453
C           3.48311         0.55631         2.29356
C           4.13624         0.76660         3.23737
C           4.33265         1.10759         4.61338
C           5.58367         1.28068         4.79271
N           6.58833         1.61950         5.53771
C           7.66886         1.75944         4.79010
C           8.49826         1.08315         5.69674
C           8.25992         0.30939         4.42008
C           7.03631         0.24687         2.78138
C           5.42764         0.36572         2.26798
H           0.78166        -0.10781        -0.79172
H           0.67585         0.23042         0.85816
H           3.64565         1.29898         5.35827
H           5.99605         1.20865         3.87554
H           8.30800         1.79778         3.48685
H           8.22261         1.63743         6.75393
H           9.48806         0.78424         4.52221
H           7.53081         0.32014         1.82310

