%chk=NtCC1dCCdCCdNCdNNdC2CdNC12S.chk
%NProcShared=20
# opt freq b3lyp/6-31g(2df,p)

Title Card Required 

0  1
N           0.95403         0.03673         0.08086
C           2.21499         0.03673         0.08086
C           3.73499         0.03673         0.08086
C           4.23191         0.28178        -1.10192
C           5.41672         0.55581        -0.66239
C           5.85288         1.37006        -2.14328
C           7.75369         1.29963        -1.49562
N           8.00258         1.60737        -2.67191
C           9.84068         1.28317        -2.08440
N          10.74196         1.77338        -3.26566
N          10.62473         0.73089        -3.84338
C           8.75704         0.22938        -3.11450
C           9.78326         0.76088        -4.93601
N           8.16170         0.23041        -3.59148
C           6.42647        -0.11020        -1.74920
S           9.13479        -0.50902        -3.00896
H           3.85588         0.46750        -1.99708
H           6.41765         0.10297        -0.11224
H           6.03206         0.72473        -3.18946
H           8.58503         0.32822        -1.24253
H          10.89110         0.58496        -2.26513
H          11.04743         1.29913        -6.43241
H          11.28578        -0.29584        -3.96334

