%chk=OCCdC1CdCCqdSrSS[SH]dC[SH]dC1.chk
%NProcShared=20
# opt freq b3lyp/6-31g(2df,p)

Title Card Required 

0  1
O           1.18245        -0.03754        -0.15718
C           2.87431        -0.00359        -0.20211
C           4.09010        -0.78324        -1.54047
C           5.72275        -1.03204        -2.23982
C           4.85005        -2.18587        -2.60142
C           5.92080        -2.90197        -2.63959
C           6.16873        -3.50113        -3.91413
S           5.06809        -3.92414        -5.04854
S           7.56997        -4.40773        -3.65014
S           8.18033        -5.21493        -5.40048
S          10.06977        -5.29113        -4.64653
C          10.00144        -4.28828        -6.19996
S           9.26224        -2.52130        -4.75490
C           7.51416        -1.44290        -3.23188
H           0.79664         0.54405         0.59475
H           2.90322        -0.35350         0.86552
H           2.87086         1.07653        -0.21931
H           2.97086        -1.33791        -1.75120
H           3.90424        -2.37394        -3.13939
H           6.72726        -2.66145        -1.90800
H          11.39977        -5.49287        -4.67133
H          10.06186        -5.50028        -7.03655
H          10.65184        -2.97779        -5.55404
H           7.96522        -1.12515        -2.05994

