%chk=Od[SH]C1dNCdS2CdCSC2dCCdCCdC1.chk
%NProcShared=20
# opt freq b3lyp/6-31g(2df,p)

Title Card Required 

0  1
O           1.52404        -0.28517         0.37907
S           2.85779        -0.04777        -0.27742
C           4.12567        -0.40841         1.01675
N           4.41431        -1.64162         1.32914
C           4.88901        -1.97770         2.57852
S           6.54590        -2.21044         3.24637
C           7.09497        -3.58202         2.27208
C           8.22119        -3.35118         1.57467
S           8.90869        -1.75571         1.50575
C           7.59908        -1.06681         2.39960
C           7.35441         0.21169         2.58585
C           7.82429         1.40818         1.89677
C           6.81008         2.22041         1.50997
C           5.59797         1.57428         0.94496
C           4.65180         0.86504         1.61052
H           2.89124         1.25622        -0.10731
H           4.10959        -2.30091         3.29603
H           6.61870        -4.55155         2.28421
H           8.70258        -4.13017         1.00041
H           6.53245         0.45899         3.25975
H           8.58467         1.16309         1.13961
H           6.69854         3.13969         2.08676
H           5.78929         1.41425        -0.11452
H           4.33453         0.98459         2.63530

