%chk=Odc1c2cqccccccc3c1d[SH]3rCdCCdCCd2.chk
%NProcShared=20
# opt freq b3lyp/6-31g(2df,p)

Title Card Required 

0  1
O           1.79437         1.86491         0.47364
C           2.95882         2.25969         0.57421
C           3.33526         0.08777         0.05336
C           4.74555        -0.53651        -0.30435
C           5.60674         0.28497         0.01893
C           5.07831         1.37810         0.34125
C           5.66222         2.39958         0.63648
C           5.09215         3.45751         0.97690
C           5.54045         4.58436         1.32235
C           4.20070         5.00940         1.50938
C           4.62435         6.11329         1.61700
C           3.32831         4.59427         1.08979
S           3.53536         7.05960         2.00357
C           5.59405        -1.48007        -1.02737
C           6.80048        -1.94871        -0.86565
C           6.93021        -3.60344        -1.25518
C           5.58405        -3.24367        -0.49828
C           3.96147        -1.77857        -0.25703
H           6.56935         0.12116        -0.04703
H           4.13709         1.37461         0.34181
H           6.62259         2.40611         0.63954
H           4.12775         3.26163         0.97706
H           6.55094         4.83997         1.37079
H           2.79458         5.70414         1.70991
H           3.59582         8.65068         1.50892
H           4.58129        -2.63444        -1.42166
H           7.53673        -1.37709        -0.46426
H           6.81005        -4.71892        -1.52421
H           7.22803        -3.38629        -0.84041
H           2.88581        -2.42487        -0.77509

