%chk=OdC1[C]2[C]CqdSrCdC21.chk
%NProcShared=20
# opt freq b3lyp/6-31g(2df,p)

Title Card Required 

0  2
O           0.71051        -0.01566         0.08086
C           1.89498         0.05067         0.07881
C           2.91409         0.98670         0.07940
C           4.29432         1.20410         0.07139
C           5.16581         0.09478         0.06508
S           6.79800         0.28125         0.05720
C           4.31895        -1.09767         0.06753
C           3.01695        -0.76545         0.07344
H           4.72264        -2.09797         0.06355

