%chk=Odc1[c]c2cqcc3n4cc-3c1dNC4rdC2.chk
%NProcShared=20
# opt freq b3lyp/6-31g(2df,p)

Title Card Required 

0  2
O           5.20731         1.12874        -1.12125
C           5.67539         1.74817        -0.18988
C           4.17645         2.04990         0.58742
C           4.82558         1.21308         1.07534
C           5.46308         1.06817         2.30414
C           6.20042         2.40328         2.21138
C           7.32440         3.15929         2.42898
N           8.41977         3.82412         1.84643
C           9.00020         3.26614         2.88580
C           8.26606         2.16764         2.35454
C           7.61705         2.00558         0.51419
N           8.84593         1.66687         0.44414
C           9.14352         3.27779         0.59349
C           5.23485        -0.11075         1.33439
H           6.70163         1.33473         1.80668
H           9.00223         3.65226         4.00152
H           9.42638         2.66138        -0.29504
H           9.39683         4.09769        -0.09081
H           5.41407        -0.48282         0.17115

