%chk=Odc1[c]cccc2c1dCCdNCdNNdCCdCCdCCdCCd2.chk
%NProcShared=20
# opt freq b3lyp/6-31g(2df,p)

Title Card Required 

0  2
O           2.16785         3.10633        -0.50557
C           2.86404         4.63698        -0.87017
C           3.33650         2.16065        -0.55774
C           3.94279         0.11104        -0.52960
C           4.75452         0.36268        -1.87748
C           4.29015         2.38543        -1.99649
C           3.49457         4.74020        -1.63268
C           2.94463         7.32681        -1.37800
C           2.86903         9.79200        -1.56656
C           2.95521        12.60548        -1.92182
N           3.34263        14.61686        -1.92383
C           4.43556        14.25786        -2.66207
N           4.74747        13.19106        -2.23137
N           4.28339        12.18170        -2.92597
C           4.33986        11.24458        -2.02051
C           4.45189         9.95792        -2.63331
C           4.24793         8.82275        -1.94678
C           4.51829         7.59443        -2.52447
C           4.44920         6.41471        -2.01174
C           4.88232         5.29011        -2.57181
C           4.60436         4.24320        -1.64054
C           4.40292         3.16147        -2.26798
H           4.76310        -1.62943        -0.35069
H           5.46000        -1.24286        -2.35613
H           4.87556         0.96580        -2.93834
H           2.94904        11.72050        -1.35717
H           3.16162        14.61385        -2.51838
H           4.48473        14.80897        -3.62465
H           3.71953        11.08316        -0.54646
H           4.76954        10.01285        -3.52611
H           3.62031         8.89254        -0.83921
H           4.90273         7.54390        -3.41976
H           4.05307         6.33852        -0.98017
H           5.08149         5.02088        -3.44280
H           4.13547         3.97416        -0.23879
H           5.20262         2.63516        -3.25726

