%chk=Odc1c2cccc-2ccccnc1dS.chk
%NProcShared=20
# opt freq b3lyp/6-31g(2df,p)

Title Card Required 

0  1
O           1.18569        -0.38005        -0.21252
C           2.41026        -0.44713        -0.32824
C           3.18662         0.81421         0.12976
C           2.78700         1.66159         1.13267
C           3.67266         2.82418         1.24026
C           4.62079         2.73609         0.28668
C           4.31029         1.54579        -0.49264
C           4.89820         1.35341        -1.70045
C           4.25889         0.50552        -2.64819
C           4.84539        -0.39067        -3.47315
C           4.06673        -1.61641        -3.10773
N           4.15711        -1.88134        -1.82869
C           3.01557        -1.80143        -1.03447
S           2.12842        -3.19617        -0.65170
H           1.92245         1.58910         1.78201
H           3.57028         3.64841         1.93642
H           5.37151         3.47719         0.06301
H           5.77343         1.91178        -1.99079
H           3.20390         0.35159        -2.43245
H           5.88738        -0.41531        -3.72654
H           3.21661        -1.83564        -3.79250

