%chk=Odc1ccccccccc2ccnc-2c1.chk
%NProcShared=20
# opt freq b3lyp/6-31g(2df,p)

Title Card Required 

0  1
O           4.12303        -1.26778         0.19831
C           4.99758        -2.22019        -0.60780
C           3.52896        -1.27805        -1.37172
C           4.59318        -0.68297        -1.82886
C           5.13385        -1.60219        -2.71817
C           6.41907        -1.35282        -2.87426
C           7.06643        -2.29284        -3.66564
C           8.33446        -1.84725        -3.66220
C           9.14246        -2.59970        -4.51843
C          10.44177        -2.49517        -3.92706
C           9.89779        -3.72764        -3.62918
C          10.49501        -4.05095        -5.15756
C          10.48362        -5.34808        -4.55965
N           9.46469        -4.96970        -3.28262
C           8.38548        -3.71811        -2.28596
C           6.96272        -2.91135        -1.34289
H           2.58259        -1.72426        -1.78544
H           5.12351        -0.01021        -1.10550
H           4.55807        -2.55110        -2.87361
H           7.15881        -0.86704        -2.02957
H           6.68211        -3.36342        -3.82879
H           8.98916        -1.68642        -2.61229
H           8.51034        -3.83629        -4.83828
H          11.32157        -2.87436        -3.25415
H          10.48617        -4.12777        -6.48737
H          11.41381        -5.56680        -5.79946
H           6.63508        -1.72276        -0.55931

