%chk=OdC1Cdc2sccc2dCCdCCdC2SCdC12.chk
%NProcShared=20
# opt freq b3lyp/6-31g(2df,p)

Title Card Required 

0  1
O           0.24502        -0.68771        -0.06161
C           1.28584        -1.27508        -0.18229
C           2.57949        -0.13193         0.64362
C           3.93680         0.32257         0.73379
S           4.62908         1.74603         1.77056
C           6.34967         1.39006         1.35891
C           6.45966         0.40575         0.45683
C           5.16762        -0.15217         0.02934
C           5.10063        -0.95270        -1.04864
C           3.84615        -0.96724        -1.72367
C           3.10334        -1.41611        -2.70468
C           1.64112        -0.98862        -2.87523
C           0.96879        -2.07747        -2.72559
S          -0.63849        -2.68071        -2.79155
C           0.56340        -3.76891        -2.15763
C           1.29608        -2.79792        -1.38914
H           1.95441         0.66316         1.11200
H           7.23698         1.90407         1.77901
H           7.40385         0.07561         0.02948
H           5.97905        -1.37110        -1.50493
H           3.13573        -0.56887        -1.09264
H           3.43707        -2.39956        -3.04537
H           0.96601        -0.30273        -2.31374
H           0.77677        -4.63391        -2.88189

