%chk=OdC1CdCCdCCdCCdNNdNNdN1.chk
%NProcShared=20
# opt freq b3lyp/6-31g(2df,p)

Title Card Required 

0  1
O           3.29748         0.46782        -0.43855
C           4.80375         1.05761        -1.04041
C           3.18529         1.20926        -1.19517
C           4.67371         1.20145        -1.18720
C           5.20811         2.31592        -2.32449
C           6.53140         2.55075        -2.56402
C           7.06302         3.15695        -3.18080
C           8.58304         1.99814        -2.00115
C           9.09973         3.62144        -3.65667
N          10.27026         3.42287        -3.45414
N          11.00691         4.30383        -4.35314
N          10.52908         3.11643        -3.14142
N           8.25056         2.83381        -2.85292
N           6.73113         1.64392        -1.63876
H           2.50149         1.75049        -1.74750
H           5.20464         0.10321        -0.06646
H           4.46511         2.71717        -2.73398
H           7.72758         1.37926        -1.36869
H           6.46004         3.70300        -3.74147
H           9.55489         1.99766        -1.99956
H           8.77467         4.40283        -4.45416

