%chk=OdC1CdCCdCCdCC2dNCdCS12S.chk
%NProcShared=20
# opt freq b3lyp/6-31g(2df,p)

Title Card Required 

0  1
O           5.54705        -3.61921        -0.14482
C           5.82214        -3.22215        -1.22109
C           4.45062        -1.99863        -1.35296
C           4.70730        -0.68061        -1.51171
C           5.41111        -0.98338        -2.70730
C           6.71520        -0.99297        -2.51162
C           7.37973        -1.76980        -3.43067
C           8.66224        -1.88640        -3.15574
C           8.52900        -3.15688        -3.58494
N           8.78929        -3.50707        -4.84342
C           9.09876        -4.77166        -4.76443
C           8.95071        -5.17505        -3.47444
S           7.52139        -4.40464        -2.28146
S           8.87209        -5.48867        -0.69713
H           3.34394        -2.06045        -1.56721
H           5.27278        -0.17007        -0.71290
H           4.99633        -1.87173        -3.30881
H           7.17766        -0.85955        -1.52581
H           6.73411        -2.55333        -3.97452
H           9.18600        -1.67457        -2.23064
H           9.94746        -5.06420        -5.42875
H           9.99587        -5.35206        -3.09976
H           9.97570        -6.04402        -1.40411

