%chk=OdC1CdCC2dCCdC2CdCS[SH]d[SH]1.chk
%NProcShared=20
# opt freq b3lyp/6-31g(2df,p)

Title Card Required 

0  1
O           1.19214         0.60649         0.15523
C           1.79615        -0.31447         0.59488
C           3.13601        -0.19845         1.31347
C           4.37173        -0.65437         1.01030
C           5.22057        -1.55741         1.98624
C           6.62737        -1.75710         1.91125
C           7.31489        -2.46405         3.07404
C           4.43449        -2.46405         3.07404
C           2.91449        -2.46405         3.07404
C           2.11956        -2.95337         4.00580
S           0.46846        -2.50081         3.68333
S           0.27554        -2.99202         1.65566
S           1.08475        -1.95039         0.26079
H           2.89580        -0.11593         2.36571
H           4.84589        -0.48867         0.04187
H           7.24983        -1.19779         1.19256
H           8.18348        -2.64856         3.67245
H           2.47535        -2.01201         2.24768
H           2.51537        -3.52729         4.85117
H           1.15039        -3.96524         1.75403
H           2.20822        -2.46988        -0.20780

