%chk=OdC1CdCNdCCdCCdCS2dCCdCC2dCS1.chk
%NProcShared=20
# opt freq b3lyp/6-31g(2df,p)

Title Card Required 

0  1
O           4.68665        -2.23535        -0.28827
C           4.95330        -2.13783        -1.48792
C           3.88569        -0.95227        -1.85137
C           4.62414         0.14931        -1.81172
N           5.34071        -0.01519        -2.95531
C           6.59423        -0.22753        -2.81176
C           7.28032        -0.76450        -3.96573
C           8.59811        -0.71432        -3.87682
C           9.40203        -1.12192        -4.96228
C          10.69752        -1.31863        -4.69326
S          11.33608        -2.70981        -5.44755
C          10.85985        -2.04408        -7.16545
C          10.14662        -3.13595        -7.79665
C           9.73733        -4.05137        -6.82426
C           9.41017        -3.72678        -5.14995
C           8.55915        -3.39024        -3.70014
S           6.87445        -3.15351        -2.40699
H           2.87720        -0.95904        -2.31549
H           5.16394         0.28017        -0.84176
H           7.13685        -0.10620        -1.85789
H           6.73205        -1.38091        -4.69158
H           9.08781        -0.67082        -2.90248
H           8.85726        -1.64695        -5.77453
H          11.20720        -1.07518        -3.78902
H          10.96137        -1.03066        -7.68302
H          10.37938        -3.26156        -8.87347
H          10.37660        -4.96271        -7.11184
H           9.48250        -3.46605        -3.04620

