%chk=OdC1[C]dCCdCCdCCdCNdCCdC1.chk
%NProcShared=20
# opt freq b3lyp/6-31g(2df,p)

Title Card Required 

0  2
O           3.02392         0.43480         0.44425
C           4.53422         1.10656         1.08784
C           3.02481         1.25432         1.22942
C           4.40837         1.15347         1.13276
C           5.18640         2.20257         2.13789
C           6.49953         2.52140         2.44420
C           6.85731         3.28015         3.17232
C           7.65547         2.75249         2.66526
C           8.89009         3.84675         3.71260
C          10.57066         3.07862         2.97713
N          10.59314         4.63249         4.46601
C          10.94113         3.73500         3.60635
C           8.99652         2.59000         2.51088
C           7.04773         1.60349         1.56489
H           5.61791         0.75264         0.74876
H           4.52379         2.66911         2.58495
H           8.05694         1.55277         1.51473
H           6.59836         3.80609         3.67144
H           8.99047         1.76351         1.71511
H           8.79116         4.63158         4.46512
H          11.62056         2.89389         2.80033
H          12.74300         4.03233         3.89101
H          10.12161         3.81525         3.68311
H           6.59574         0.45585         0.46444

