%chk=OdC1CdCCdCCdCN2SSNdC2S1.chk
%NProcShared=20
# opt freq b3lyp/6-31g(2df,p)

Title Card Required 

0  1
O           4.04130        -0.33613        -1.56795
C           4.50501         0.86314        -1.57780
C           3.57571         1.62083        -0.70234
C           4.42877         1.90467         0.29249
C           5.07195         3.08266        -0.14654
C           6.33567         2.98504         0.10215
C           7.14792         4.06655        -0.20913
C           8.39804         3.64212        -0.26310
N           8.72269         3.77663        -1.54103
S           9.05681         5.51503        -1.67317
S           9.27721         5.21109        -3.61005
N           8.10901         3.73920        -3.75390
C           7.79201         3.17687        -2.57087
S           6.38422         1.47224        -2.47225
H           2.74034         2.18823        -1.05833
H           5.11960         1.09947         0.60329
H           4.66113         3.73335        -0.95735
H           6.87650         2.02985         0.23098
H           6.71562         4.66268        -1.06710
H           8.91141         2.72026         0.00407

