%chk=OdC1CdCCdCCdCC2dCNdCC12S.chk
%NProcShared=20
# opt freq b3lyp/6-31g(2df,p)

Title Card Required 

0  1
O           5.38971         0.17612         3.29151
C           5.96481        -0.94001         3.26371
C           4.51486        -1.13497         2.05246
C           4.78643        -1.52416         0.80028
C           5.33553        -2.62876         1.51516
C           6.64436        -2.48826         1.48732
C           7.19921        -3.29480         2.42894
C           8.49576        -3.01444         2.37018
C           8.60687        -3.18914         3.67905
C           8.79280        -4.45808         4.13096
N           9.54994        -4.11996         5.10887
C           9.21303        -2.79480         4.94029
C           7.81133        -1.72648         4.21424
S           9.26244        -0.48197         5.28943
H           3.29245        -1.36509         2.04879
H           5.25415        -0.64963         0.29839
H           4.84305        -2.86345         2.64583
H           7.13260        -1.50661         1.24102
H           6.64008        -3.50116         3.46454
H           9.08641        -2.13711         2.06194
H           8.28608        -5.41143         4.15887
H          10.37885        -2.57981         5.06102
H          10.60600        -1.17618         5.82217

