%chk=OdC[C]1CdCCqdSrSCdCNdC1.chk
%NProcShared=20
# opt freq b3lyp/6-31g(2df,p)

Title Card Required 

0  2
O           1.95962        -1.05909         0.43286
C           3.08907        -1.03888         0.00674
C           4.43046        -1.40991         0.78279
C           4.91668        -0.13570         1.18776
C           5.63716        -0.16931         2.24742
C           7.03610         0.13934         1.84949
S           7.64104         0.54375         0.28827
S           8.09457        -0.29686         3.15895
C           8.88035        -1.47782         2.20548
C           8.20902        -2.54048         1.70605
N           6.86147        -2.93990         1.43548
C           5.59620        -2.66177         1.07622
H           3.26788        -0.22214        -0.76473
H           5.07232         0.47616         0.28257
H           5.43468        -0.96794         3.00010
H           9.74724        -1.07364         1.63926
H           8.81066        -3.36509         2.17761
H           5.04311        -3.61762         1.07038

