%chk=OdCC1dCCdCCdCCdCN[C]SS1.chk
%NProcShared=20
# opt freq b3lyp/6-31g(2df,p)

Title Card Required 

0  1
O           1.75830         0.85659        -0.37519
C           3.05849         1.21924        -0.50487
C           4.29708         2.75587        -1.05435
C           4.63508         1.53098        -0.61635
C           5.37865         2.62277        -1.00676
C           6.62215         2.16486        -0.84302
C           7.67634         2.87274        -1.09615
C           8.91290         3.03120        -1.15281
C           9.23223         4.21131        -1.57481
C          10.34045         4.79274        -1.78272
N           9.65714         6.27218        -2.31175
C          10.80062         6.06199        -2.23659
S           8.38573         6.26945        -2.31077
S           6.00727         4.69266        -1.74693
H           3.18935        -0.12713        -0.02342
H           5.01589         0.52611        -0.25701
H           4.58781         4.00746        -1.50191
H           7.06787         1.29558        -0.53217
H           7.41181         3.73032        -1.40281
H           9.52473         2.32388        -0.89988
H           8.24421         4.69010        -1.74601
H          11.34151         4.17255        -1.56095
H          10.53491         7.08098        -2.60097

