%chk=OdCC1dCqc2cc3ocd3c2dOrCdCdCSCdC1.chk
%NProcShared=20
# opt freq b3lyp/6-31g(2df,p)

Title Card Required 

0  1
O           1.49932         0.68811         0.52414
C           2.70867         0.66967         0.29117
C           3.95332         1.26021         1.22685
C           4.74868         0.21889         1.45558
C           5.34041        -0.21983         0.16136
C           6.38866        -0.91173         0.01887
C           6.96164        -0.75663        -1.29450
O           6.82150        -1.34460        -2.46068
C           6.07820        -0.25479        -2.19378
C           5.07955         0.26187        -1.24606
O           4.24567         1.02969        -1.65072
C           5.48081         0.34360         2.77075
C           6.76899         0.52949         2.80904
C           7.94481         1.05697         2.65508
S           7.90028         2.76982         2.27819
C           6.29348         2.87936         1.38688
C           4.90304         2.61507         1.40756
H           2.97263        -0.17736        -0.40743
H           6.93156        -1.20244         0.91802
H           4.94807         1.02006         3.46825
H           8.84007         0.43053         2.59871
H           6.74782         2.20474         0.71857
H           4.35162         3.10245         2.18573

