%chk=OdCc1ccc2cqc1rdCCdCCdCCdCCdCCd2.chk
%NProcShared=20
# opt freq b3lyp/6-31g(2df,p)

Title Card Required 

0  1
O           0.93846        -0.05777        -0.01591
C           2.16335        -0.07209        -0.03127
C           2.96885        -1.06037        -0.76623
C           2.96155        -1.78195        -1.97844
C           4.20887        -3.17231        -1.73144
C           5.68865        -4.15490        -0.19611
C           4.44027        -2.97621        -0.54940
C           3.92486        -1.69807        -0.13678
C           5.01029        -3.80559         0.36703
C           5.36629        -3.42667         1.64315
C           5.83714        -4.19360         2.57854
C           6.35252        -3.58651         3.52920
C           6.41491        -4.75189         4.13157
C           7.20812        -4.54420         5.51681
C           7.41187        -5.96917         4.83346
C           8.24023        -5.13419         5.56183
C           8.02536        -5.23183         3.59396
C           6.91566        -4.86316         1.33216
H           2.72693         0.63775         0.58438
H           1.98169        -0.87593        -2.61927
H           3.54597        -2.74873        -3.23316
H           4.37329        -1.46217         0.72934
H           5.22320        -5.25410         0.71161
H           5.09419        -2.53905         1.86349
H           6.50005        -5.61145         2.49999
H           6.15826        -2.97050         4.19061
H           6.91571        -6.23126         3.40451
H           7.29423        -3.67282         6.21146
H           8.55234        -6.96654         5.41133
H           8.26846        -4.79686         7.30599
H           8.58774        -5.65299         5.31170
H           6.34327        -5.41946        -0.07096

