%chk=OdCC1dC2NCdNNdc3ncnnc3dS12.chk
%NProcShared=20
# opt freq b3lyp/6-31g(2df,p)

Title Card Required 

0  1
O           2.21465        -0.38471         0.20968
C           3.41693         0.02752         0.16387
C           4.92480        -1.21516        -0.06513
C           5.60313        -1.39522         0.95765
N           5.19744        -2.65120         1.34442
C           6.15573        -3.30294         1.82995
N           6.37923        -4.40762         2.34695
N           7.45407        -3.75493         2.55911
C           8.59268        -3.98156         2.40667
N           8.53742        -5.33378         2.58009
C           9.66237        -5.80414         2.80707
N          10.62323        -4.88564         2.28192
N          10.29003        -3.64435         1.37663
C           8.87029        -2.67199         1.32545
S           7.14025        -1.19836         0.21931
H           3.43020         0.94338        -0.51485
H           4.29744        -3.02760         1.55700
H           6.96237        -2.45952         1.78388
H           9.59981        -6.85700         3.33390

