%chk=OdNCCdCCOC1dCCqdSrCdC1.chk
%NProcShared=20
# opt freq b3lyp/6-31g(2df,p)

Title Card Required 

0  1
O           1.09666         0.03562         0.12023
N           2.32416        -0.09080         0.03616
C           3.04640         0.99960         0.75703
C           4.53353         0.81136         0.63862
C           5.44748         1.63665         1.18670
C           6.93330         1.42384         1.05424
O           7.63745         2.38194         1.85879
C           8.99418         2.39106         1.67858
C           9.72279         2.17200         0.57863
C          11.12911         2.28704         1.02076
S          12.47801         2.10004         0.05973
C          11.12508         2.59133         2.46723
C           9.83527         2.66096         2.81157
H           2.73033         0.95614         1.80418
H           2.73333         1.94584         0.30416
H           4.87563        -0.05211         0.06911
H           5.11936         2.50648         1.75100
H           7.20385         1.51396        -0.00335
H           7.18879         0.42434         1.42554
H           9.41015         1.97019        -0.43010
H          12.00160         2.72260         3.07920
H           9.47049         2.86949         3.80589

