%chk=ONN1CSCdCdCqCdSrNdN1.chk
%NProcShared=20
# opt freq b3lyp/6-31g(2df,p)

Title Card Required 

0  1
O           1.32527         0.77185        -0.28994
N           2.44495         0.79051        -1.32121
N           3.52377         2.16592        -1.27237
C           4.77149         1.57472        -0.77784
S           5.99038         2.78951        -0.36845
C           6.93035         2.55498        -1.81032
C           6.68749         3.36685        -2.73545
C           6.13882         4.52395        -3.08462
C           7.49951         5.62320        -2.83862
S           8.95957         5.34798        -1.91210
N           4.69498         4.40320        -2.46327
N           3.84398         3.21921        -2.58299
H           1.15316        -0.16541         0.01449
H           2.97215         0.00743        -0.86394
H           5.06597         0.73112        -1.44209
H           4.56472         1.12446         0.18857
H           7.91918         2.16738        -1.62430
H           7.68883         6.43617        -3.59633

