%chk=OSC1dCCdCCdCCdCCdC2CdCSCdC21.chk
%NProcShared=20
# opt freq b3lyp/6-31g(2df,p)

Title Card Required 

0  1
O           3.04611         1.28466         0.12875
S           5.00059         2.90695         0.11210
C           7.16092         4.84043         0.21810
C           6.16717         3.11904         0.32929
C           5.70831         4.29769         1.23390
C           6.97555         3.38480         1.49839
C           7.53279         5.03725         2.03302
C           8.70022         4.78749         1.41925
C           8.68870         5.81245         2.38474
C          10.20913         6.00630         2.28420
C           9.85945         7.69494         2.66925
C          10.74253         7.35170         1.66255
C          12.77446         7.12773         1.92391
C          14.12207         7.45928         1.65062
S          13.05945         8.68331         1.42430
C          10.79239         7.69297         0.95202
C           9.02168         6.39165         0.61422
H           1.85359         0.13883        -0.08271
H           5.76446         1.44009         0.33797
H           4.48180         4.20232         1.24359
H           7.55357         2.48806         0.67129
H           6.41245         5.80503         1.63346
H           9.23543         4.04885         1.04070
H           8.03728         7.13158         2.02530
H          11.10407         5.68395         1.44924
H           9.97129         8.86132         2.37923
H          12.69487         6.16864         1.95342
H          14.94050         6.77153         1.42706
H          11.87190         8.86981         1.77724

