%chk=OSC1dCCdc2cccnccccc2dCCdN1.chk
%NProcShared=20
# opt freq b3lyp/6-31g(2df,p)

Title Card Required 

0  1
O           1.00971        -0.07259         0.02608
S           2.72804        -0.00138         0.02945
C           3.68543        -1.83771        -0.14008
C           5.05406        -1.81972         0.11834
C           5.93856        -3.66277        -0.08273
C           7.56886        -4.18222        -0.12779
C           6.89651        -5.28094        -0.26757
C           7.91867        -5.94285        -0.53779
C           8.31899        -7.20030        -0.53741
N           9.48866        -7.39669        -0.85743
C          10.31701        -8.34616        -1.09970
C          11.63907        -7.89849        -1.42277
C          11.46842        -7.72438        -0.00403
C          10.85614        -6.12338         0.16000
C           9.47037        -4.39596         0.03122
C           8.72053        -2.91191        -0.00626
C           7.05796        -1.67789        -0.14748
N           5.39501        -2.08846        -0.30741
H           0.60520         0.85788         0.08573
H           5.19535        -0.50291         0.03651
H           4.80527        -4.21305        -0.22446
H           5.99940        -5.84060        -0.32227
H           8.88070        -5.88696        -0.29045
H           7.60409        -7.85042        -0.39106
H           9.84636        -9.25308        -0.66615
H          12.70792        -7.18047        -1.08912
H          11.70556        -9.24274        -0.29133
H          11.96331        -6.90658         0.54757
H           7.36105        -2.47651        -0.03499
H           7.40353        -0.49674        -0.00884

