%chk=S[C]1CdCCdCCdCCdC[N]CdC1.chk
%NProcShared=20
# opt freq b3lyp/6-31g(2df,p)

Title Card Required 

0  1
S           3.52489         1.56747         0.42657
C           4.67040         1.87225         2.15381
C           3.97530         0.53075         2.29658
C           4.81737        -0.48581         2.17893
C           5.22371        -0.38495         3.54304
C           6.52527        -0.36546         3.84273
C           6.84755         0.04858         5.15183
C           8.13925        -0.14961         5.46628
C           8.77922         0.64575         6.50023
C           9.27406         1.65179         5.72276
N           8.26620         2.51156         4.99688
C           7.68252         2.25739         3.54870
C           6.49347         2.10771         2.57576
H           2.45140         0.46196         0.76710
H           3.01901         0.44821         2.83183
H           5.59701        -0.35130         1.39065
H           4.63440         0.26747         4.22801
H           7.24465        -0.36624         3.02692
H           6.24933         0.81406         5.67154
H           8.75917        -0.25818         4.55719
H           8.02012         0.99206         7.20723
H          10.32866         1.20793         5.52712
H           8.70259         2.12852         3.07523
H           6.85062         1.90610         1.54890

