%chk=SdC1CdCSC2dCdCCqSrdS12.chk
%NProcShared=20
# opt freq b3lyp/6-31g(2df,p)

Title Card Required 

0  1
S           0.99209        -0.38875         0.21182
C           2.69358        -0.40476         0.23655
C           3.34083         1.04518         0.16384
C           4.61682         1.33189         0.04311
S           5.76792         0.11819        -0.01020
C           4.71821        -1.22850        -0.00379
C           5.38599        -2.41372        -0.00245
C           6.05376        -3.59895        -0.00110
C           4.58834        -3.51972         0.71622
S           3.65414        -4.72316         1.64187
S           3.31386        -2.02897        -0.21897
H           2.67399         1.91366         0.13588
H           5.02192         2.34848        -0.02690
H           6.48565        -4.49562        -0.40012
H           3.36444        -3.97482         2.73288

