%chk=SdC1CdCCdCCdCCdCNSSS1.chk
%NProcShared=20
# opt freq b3lyp/6-31g(2df,p)

Title Card Required 

0  1
S           2.60345        -0.24986        -0.36898
C           4.83117        -0.70067        -1.03878
C           3.40245        -0.96825        -1.44391
C           4.81182        -0.87127        -1.30727
C           5.36614        -1.70980        -2.53163
C           6.73793        -2.18780        -3.22585
C           7.76299        -2.44920        -3.65939
C           9.05573        -1.96996        -2.99351
C           8.39779        -2.46765        -3.68295
C          10.46529        -2.14199        -3.19680
N          11.00449        -3.25714        -4.87472
S          12.49056        -3.21617        -4.81585
S           9.65106        -2.86633        -4.31746
S           7.28374        -1.29379        -2.06591
H           2.76827        -1.40464        -2.09768
H           5.59517        -0.07556        -0.10417
H           4.76699        -2.10885        -3.14558
H           8.39460        -1.53650        -2.14160
H           6.92406        -2.85570        -4.28854
H           9.54782        -1.55886        -2.34719
H           8.60068        -3.44658        -5.15833
H          11.70480        -2.36392        -3.53576
H          11.18272        -4.02665        -6.03039

