%chk=SdCd[SH]C1dCCdCqC[SH]dSrCSSS1.chk
%NProcShared=20
# opt freq b3lyp/6-31g(2df,p)

Title Card Required 

0  1
S           1.23111        -0.08565        -0.01299
C           2.80273        -0.15006         0.24330
S           4.37694        -0.23363         0.51824
C           4.83209         0.24893        -1.18325
C           4.86268        -0.76791        -2.07118
C           4.75238        -0.90157        -3.51139
C           5.21030        -0.18507        -4.56168
C           5.03013        -0.57318        -6.03042
S           4.22929        -2.19231        -6.31693
S           4.06748        -2.27142        -8.28224
C           6.01726         1.06707        -4.38707
S           4.98489         2.56319        -4.50951
S           3.80596         2.45090        -2.83412
S           5.12173         1.95437        -1.36452
H           4.53025        -1.53432         0.46226
H           4.84001        -1.77972        -1.65104
H           4.16058        -1.79394        -3.72549
H           6.02285        -0.63708        -6.49369
H           4.45292         0.19819        -6.55341
H           2.99499        -1.87489        -5.99171
H           6.79304         1.13946        -5.15326
H           6.57677         1.04988        -3.44905

