%chk=Sn1ccccc2cqs1rNdNCdCNdCCdCN2.chk
%NProcShared=20
# opt freq b3lyp/6-31g(2df,p)

Title Card Required 

0  1
S           1.76275        -0.02981        -0.04697
N           4.11646         0.01816        -0.09463
C           3.65408         0.90360        -0.97448
C           4.74150         1.34944        -1.41751
C           5.91693         2.06466        -2.12821
C           7.61605         2.19201        -2.25476
C           9.18435         3.20752        -3.26387
C           8.20295         1.96457        -2.02876
S           6.54759         0.45467        -0.52839
N           9.73506         2.63488        -2.69484
N          11.23587         2.95786        -3.01578
C          12.30494         3.90345        -3.95540
C          13.62783         3.69352        -3.74681
N          13.25579         4.42118        -4.46987
C          14.43077         4.72421        -4.77098
C          14.30446         5.89456        -5.93396
C          12.54030         5.47462        -5.51667
N          10.67031         4.34545        -4.39462
H           0.71081         0.82425        -0.89564
H           2.91432         1.44622        -1.51368
H           5.75478         1.42055        -1.48817
H           5.11454         2.48300        -2.54392
H           7.91383         1.01990        -1.09005
H          11.51066         4.98958        -5.03469
H          14.33047         3.28323        -3.33910
H          15.75788         4.57278        -4.62051
H          15.47114         6.68483        -6.71924
H          14.22379         5.72768        -5.76813
H           9.60393         4.44291        -4.49146

