%chk=SNdc1c2c3cqc-2c2c1dC2rdCCdCS3.chk
%NProcShared=20
# opt freq b3lyp/6-31g(2df,p)

Title Card Required 

0  1
S           1.10756        -0.21299         0.06994
N           2.80934        -0.19859         0.04213
C           3.52493        -1.31242         0.08549
C           2.97019        -2.94479         0.23122
C           2.84070        -4.38654         0.29975
C           4.31823        -4.45098         0.46923
C           4.33906        -3.17922         0.31716
C           5.35424        -2.48895         0.18764
C           5.34222        -1.19608         0.02450
C           6.54446        -2.07844         0.51315
C           5.44314        -5.26139         0.45933
C           5.59315        -7.18957         0.42374
C           4.53455        -6.56345         0.15569
S           2.86875        -6.34924         0.41116
H           0.69962         1.09902        -0.00903
H           7.31900        -2.73509         0.03140
H           6.45487        -4.84763         0.37464
H           5.06607        -8.14416         0.58709
H           5.97973        -6.68509         0.55176

