%chk=C1dCCCdCCCCCdCCCCCdC1.chk
%NProcShared=20
# opt freq b3lyp/6-31g(2df,p)

Title Card Required 

0  1
C           4.66576        -0.31611         0.56076
C           2.88402         0.01845         0.06735
C           3.42926        -0.90495         1.42764
C           5.02995        -1.09799         1.72557
C           5.94396        -1.49776         2.29836
C           7.81543        -1.43079         2.19855
C           7.25996        -2.05423         3.11996
C           8.54213        -1.88820         2.87562
C           9.97710        -2.47683         3.74217
C          10.76471        -3.09365         4.65060
C          11.91164        -2.93569         4.41758
C          13.64468        -2.82159         4.24966
C          11.76498        -2.22369         3.36810
C           9.48248        -1.25297         1.93986
C           7.28230        -0.69757         1.12183
H           2.69668        -0.31865         0.56483
H           3.25912         0.67626        -0.90137
H           2.92063        -1.80628         1.12023
H           2.92049        -0.28717         2.15187
H           5.67253         0.03775         0.05960
H           5.16423        -1.80611         2.75387
H           7.65657         0.30564         1.89160
H           7.65473        -1.78329         0.47165
H           7.54422        -2.86433         2.59563
H           7.54427        -1.26817         3.67932
H           9.24348        -0.21475         2.71482
H           9.24321        -2.35614         1.26062
H           9.41331        -2.87427         4.32718
H          10.51794        -2.19629         3.32937
H          11.94988        -4.12977         4.52389
H          11.94994        -2.59407         5.56670
H          14.00248        -1.80942         4.36025
H          14.00251        -3.29766         3.34961
H          13.04507        -3.47420         4.31923
H          13.04514        -2.64602         4.88150
H          11.20507        -1.48646         2.28619
H           5.49492        -0.50837         0.81102

