%chk=C1dCCdNCqNc2ccccc2rdCCdC1.chk
%NProcShared=20
# opt freq b3lyp/6-31g(2df,p)

Title Card Required 

0  1
C          -1.59059         0.27908         0.46950
C          -1.22839        -1.01072         0.52226
C          -0.20796        -1.50137        -0.44087
N           1.03896        -1.16892        -0.52213
C           1.53072        -0.34692         0.47860
N           2.26991        -0.87406         1.52444
C           2.78569        -2.17784         1.54467
C           2.60122        -2.98815         2.66893
C           3.10682        -4.29069         2.69226
C           3.77454        -4.80176         1.57941
C           3.96901        -4.00151         0.45739
C           3.48645        -2.69491         0.44820
C           1.24205         0.97454         0.44776
C           0.28684         1.55925        -0.48102
C          -1.01882         1.23753        -0.46460
H          -2.31856         0.66862         1.17590
H          -1.62375        -1.72038         1.23637
H          -0.59883        -2.20887        -1.19145
H           2.65895        -0.22894         2.19698
H           2.01633        -2.62639         3.51035
H           2.96913        -4.91081         3.57345
H           4.13588        -5.82596         1.58152
H           4.48812        -4.38683        -0.41501
H           3.63762        -2.07409        -0.43214
H           1.62550         1.65053         1.20587
H           0.68035         2.25588        -1.21504
H          -1.69939         1.67239        -1.19185

