%chk=CC1CCCCqCqCrCrCCC1.chk
%NProcShared=20
# opt freq b3lyp/6-31g(2df,p)

Title Card Required 

0  1
C           0.80974        -0.05840        -0.20095
C           2.33542        -0.05860        -0.15486
C           2.91350        -1.33391        -0.78222
C           4.38212        -1.61180        -0.45366
C           4.75183        -1.36369         1.01231
C           5.55922        -0.05929         1.27475
C           6.13550        -0.05950         2.73172
C           7.00356        -1.29656         3.00961
C           7.00412         1.17717         3.00972
C           4.75215         1.24537         1.01273
C           4.38257         1.49407        -0.45316
C           2.91385         1.21680        -0.78175
H           0.42074        -0.93873         0.32381
H           0.42658        -0.05824        -1.22297
H           0.42094         0.82190         0.32402
H           2.54052        -0.05883         0.91658
H           2.79752        -1.30597        -1.87444
H           2.33091        -2.19668        -0.43850
H           5.05346        -1.07527        -1.12685
H           4.56943        -2.67039        -0.68228
H           5.35754        -2.22974         1.29292
H           3.87937        -1.41728         1.67169
H           6.41484        -0.05931         0.58975
H           5.30060        -0.05934         3.44215
H           7.81239        -1.37545         2.27651
H           6.42589        -2.22437         2.98740
H           7.44993        -1.24349         4.00795
H           7.81296         1.25579         2.27661
H           7.45048         1.12381         4.00805
H           6.42688         2.10526         2.98763
H           5.35801         2.11120         1.29368
H           3.87968         1.29891         1.67210
H           5.05372         0.95751        -1.12652
H           4.57027         2.55266        -0.68143
H           2.79781         1.18934        -1.87398
H           2.33156         2.07961        -0.43764

