%chk=CC1dCCCCqCrCCqCrCCC1.chk
%NProcShared=20
# opt freq b3lyp/6-31g(2df,p)

Title Card Required 

0  1
C           0.92662        -0.09591        -0.30882
C           2.43652         0.01146        -0.43286
C           3.08561         1.21963        -0.57262
C           2.49112         2.57743        -0.20677
C           3.38876         3.52281         0.65107
C           3.87138         3.13816         2.09012
C           4.97774         4.12121         2.51902
C           4.47519         1.73517         2.22187
C           3.59046         0.63405         2.84636
C           2.11780         0.77126         2.54279
C           4.18599        -0.73083         2.39381
C           3.35161        -1.63342         1.45135
C           3.24507        -1.23878        -0.06631
H           0.43096         0.88050        -0.30065
H           0.64023        -0.59260         0.62560
H           0.49089        -0.66196        -1.13527
H           4.15751         1.20899        -0.70973
H           1.55075         2.47978         0.34381
H           2.23571         3.10165        -1.13557
H           2.82041         4.45911         0.76855
H           4.26257         3.78717         0.04505
H           3.04930         3.27386         2.80313
H           5.83246         4.05128         1.83626
H           5.34175         3.87942         3.52588
H           4.62386         5.15469         2.53285
H           5.38637         1.76136         2.83681
H           4.85121         1.43496         1.24308
H           3.67490         0.72026         3.93843
H           2.08322         0.78748         1.49375
H           1.62883         1.71073         2.79402
H           1.49902        -0.07309         2.84647
H           4.39912        -1.29581         3.31348
H           5.17620        -0.59081         1.93795
H           2.36198        -1.81502         1.88433
H           3.84322        -2.61762         1.48343
H           2.79066        -2.09452        -0.58526
H           4.26618        -1.15824        -0.45420

