%chk=CCC1C2NdCqCrNdCCdC2OCqCCCOrC1C.chk
%NProcShared=20
# opt freq b3lyp/6-31g(2df,p)

Title Card Required 

0  1
C           0.97675         0.10131         0.06443
C           2.48793         0.04541        -0.10345
C           3.17154        -1.22671        -0.68376
C           4.71886        -0.97007        -0.82640
N           5.01161         0.24931        -1.52921
C           5.68867         0.52778        -2.59398
C           5.89810         1.99232        -2.90204
N           6.27131        -0.26608        -3.50984
C           6.38737        -1.54768        -3.44802
C           5.98094        -2.50703        -2.45154
C           5.29743        -2.23823        -1.34602
O           4.78089        -3.32154        -0.68724
C           3.59226        -3.81747        -1.45200
C           3.44013        -5.21033        -0.43125
C           4.08317        -6.73030        -0.74989
C           3.59352        -7.86103         0.24372
O           4.00982        -9.17940        -0.14737
C           2.73082        -2.20260        -1.84638
C           1.31479        -1.70495        -2.34541
H           0.70805         0.87377         0.79470
H           0.58014        -0.85129         0.42315
H           0.46831         0.38992        -0.85853
H           2.88077         0.08794         0.92514
H           2.82899         0.97615        -0.56973
H           2.96877        -1.92302         0.13737
H           5.09449        -0.82270         0.19374
H           5.39314         2.62781        -2.17121
H           5.51926         2.21978        -3.90310
H           6.97191         2.21209        -2.87444
H           6.87194        -2.03427        -4.30860
H           6.12308        -3.54776        -2.72694
H           4.00285        -4.21216        -2.39178
H           2.40265        -5.37105        -0.16207
H           4.01148        -4.99230         0.49452
H           5.18855        -6.76752        -0.68597
H           3.84165        -7.06837        -1.76289
H           2.50360        -7.87604         0.31630
H           3.99773        -7.72951         1.25540
H           3.55623        -9.43346        -0.96876
H           3.30208        -1.85652        -2.74235
H           0.50870        -1.89647        -1.63716
H           0.97748        -1.93815        -3.36556
H           1.34923        -0.58904        -2.43868

