%chk=CCC1dCCC2CdCCCCCC2CC1.chk
%NProcShared=20
# opt freq b3lyp/6-31g(2df,p)

Title Card Required 

0  1
C           1.08697         0.00340         0.12375
C           2.62203         0.09356         0.04830
C           3.38963        -0.81526         1.01079
C           4.37728        -0.53163         1.86170
C           4.96103        -1.63915         2.78156
C           6.36276        -2.11861         2.40638
C           6.98550        -2.60146         3.70006
C           7.67600        -3.74105         4.03385
C           8.05220        -4.84903         3.12574
C           6.89744        -5.83133         2.91904
C           5.62791        -5.16285         2.41439
C           5.87378        -4.49605         1.08570
C           6.20110        -2.99252         1.08312
C           5.07802        -2.40193         0.10912
C           3.51287        -2.27157         0.64151
H           0.63298         0.71122        -0.58465
H           0.70075         0.25418         1.11773
H           0.71520        -0.99182        -0.14556
H           2.89374         1.14206         0.22081
H           2.91364        -0.14671        -0.97958
H           5.03199         0.31074         1.58864
H           4.42925        -2.58853         2.72689
H           4.75609        -1.41061         3.82694
H           6.95544        -1.22749         2.13862
H           6.78624        -1.95549         4.55111
H           7.92664        -3.86687         5.07854
H           8.89582        -5.39075         3.57533
H           8.43122        -4.45871         2.17438
H           6.66041        -6.34348         3.85682
H           7.20630        -6.60063         2.20086
H           5.22845        -4.47403         3.15861
H           4.83827        -5.90983         2.28138
H           4.97126        -4.66314         0.48624
H           6.64470        -5.03389         0.50960
H           7.19442        -2.91566         0.59954
H           5.08094        -2.95899        -0.83340
H           5.47647        -1.41561        -0.18094
H           3.19203        -2.80318         1.55114
H           2.75798        -2.64527        -0.05065

