%chk=CCC1CCCqCrCCCqOOrCqCrC1.chk
%NProcShared=20
# opt freq b3lyp/6-31g(2df,p)

Title Card Required 

0  1
C           0.73015        -0.27732        -0.10203
C           2.22338        -0.48017        -0.09159
C           2.98417        -0.68227        -1.40800
C           2.64738         0.34209        -2.52647
C           3.25204         1.76306        -2.44714
C           2.97278         2.54860        -1.15214
C           2.01486         3.72393        -1.39064
C           4.24859         2.99473        -0.38743
C           5.33916         1.94648        -0.02394
C           4.87869         0.78212         0.87110
O           5.51215         0.77773         2.17014
O           4.65256        -0.08891         2.99889
C           5.10170        -0.61801         0.21258
C           6.60917        -0.93284         0.21454
C           4.52501        -0.82175        -1.21484
H           0.44317         0.13578         0.87502
H           0.21281        -1.22110        -0.25128
H           0.41448         0.45778        -0.84508
H           2.49370        -1.23537         0.65134
H           2.54336         0.43879         0.33212
H           2.63464        -1.65433        -1.78815
H           1.56121         0.42508        -2.63758
H           2.98607        -0.09252        -3.47962
H           2.85644         2.32178        -3.30723
H           4.32695         1.70668        -2.64218
H           2.36484         1.96608        -0.48370
H           2.44824         4.50096        -2.02274
H           1.73089         4.16984        -0.42939
H           1.08685         3.36583        -1.85505
H           3.93406         3.48067         0.54450
H           4.74206         3.76735        -0.98925
H           6.16107         2.47097         0.47545
H           5.75867         1.57374        -0.96155
H           3.86597         1.01010         1.16406
H           5.06319         0.10501         3.84788
H           4.65595        -1.39035         0.85283
H           7.17168        -0.19120        -0.36004
H           6.81064        -1.92135        -0.20777
H           7.00231        -0.93336         1.23716
H           4.79115        -1.84099        -1.53617
H           5.06894        -0.19768        -1.93215

