%chk=CCC1CCCC1COCCCCCqCrC.chk
%NProcShared=20
# opt freq b3lyp/6-31g(2df,p)

Title Card Required 

0  1
C           1.18050        -0.32482        -0.06286
C           2.65934        -0.01865        -0.01121
C           3.06580         1.33792         0.60873
C           4.46100         1.71555         0.08546
C           4.61537         3.19134         0.39624
C           3.20904         3.77246         0.36965
C           2.22650         2.59339         0.26225
C           1.01531         2.85455         1.17630
O           0.03452         1.86681         0.94844
C          -1.01567         1.84287         1.89841
C          -1.80848         0.54964         1.69614
C          -3.04581         0.59880         2.57201
C          -3.94731        -0.62132         2.40983
C          -5.20501        -0.49629         3.28975
C          -6.03581         0.73994         2.93174
C          -6.06588        -1.75042         3.15455
H           0.98017        -1.30363        -0.50483
H           0.65767         0.40433        -0.69014
H           0.77554        -0.34270         0.94919
H           3.04371        -0.10373        -1.03261
H           3.14804        -0.81607         0.56501
H           3.11164         1.22991         1.70013
H           4.52288         1.57016        -0.99930
H           5.25373         1.11609         0.54665
H           5.27188         3.68851        -0.32633
H           5.05693         3.32638         1.38911
H           3.07617         4.44586        -0.48447
H           3.04420         4.37077         1.27384
H           1.88541         2.50604        -0.77636
H           0.57458         3.83162         0.94204
H           1.32496         2.85531         2.22787
H          -1.65272         2.71560         1.73147
H          -0.61762         1.87185         2.91675
H          -1.19774        -0.32289         1.95581
H          -2.07920         0.42937         0.64090
H          -3.59135         1.50473         2.29679
H          -2.74935         0.69644         3.62152
H          -3.39083        -1.52530         2.69074
H          -4.23323        -0.73959         1.35841
H          -4.89066        -0.40867         4.33680
H          -6.33541         0.71982         1.87905
H          -5.48318         1.66785         3.10857
H          -6.93788         0.79594         3.54809
H          -6.40740        -1.88499         2.12338
H          -6.94872        -1.68207         3.79928
H          -5.50419        -2.64307         3.44792

