%chk=CCCCCOCCC1COCC1C.chk
%NProcShared=20
# opt freq b3lyp/6-31g(2df,p)

Title Card Required 

0  1
C           1.04416        -0.04012         0.01338
C           2.56345        -0.04500         0.01388
C           3.09651        -1.46875         0.11642
C           4.62137        -1.49393         0.12213
C           5.10964        -2.92806         0.23052
O           6.53572        -2.94414         0.25151
C           6.99700        -4.29229         0.32403
C           8.51966        -4.30923         0.30076
C           9.14381        -5.70215         0.41989
C           9.01404        -6.32749         1.79566
O           9.32324        -7.70982         1.59362
C           8.81106        -8.08199         0.30718
C           8.58402        -6.79690        -0.48746
C           9.25681        -6.82096        -1.85231
H           0.66840         0.98472        -0.05980
H           0.65252        -0.48390         0.93415
H           0.65260        -0.61034        -0.83491
H           2.92995         0.55151         0.85658
H           2.93041         0.42507        -0.90519
H           2.72273        -2.06429        -0.72548
H           2.71926        -1.93845         1.03305
H           5.01618        -0.90495         0.95792
H           5.01948        -1.03611        -0.79109
H           4.74976        -3.50798        -0.62755
H           4.73042        -3.38541         1.15139
H           6.59752        -4.83185        -0.53907
H           6.61814        -4.74831         1.24374
H           8.89730        -3.66886         1.10847
H           8.85959        -3.83280        -0.62720
H          10.21915        -5.59663         0.21350
H           8.00080        -6.26462         2.20656
H           9.71427        -5.89775         2.51629
H           7.86174        -8.60554         0.46942
H           9.50576        -8.77889        -0.16952
H           7.50470        -6.69949        -0.64699
H          10.33893        -6.96233        -1.75451
H           9.08521        -5.88103        -2.38684
H           8.86545        -7.63883        -2.46496

