%chk=CCCCCCCCCCCCCCCCCCCC.chk
%NProcShared=20
# opt freq b3lyp/6-31g(2df,p)

Title Card Required 

0  1
C           0.90708        -0.10342         0.02371
C           2.42470        -0.09825         0.01427
C           2.95403         0.58792        -1.23930
C           4.47684         0.59364        -1.24977
C           4.99382         1.28103        -2.50558
C           6.51438         1.28599        -2.51463
C           7.02713         1.97303        -3.76981
C           8.54650         1.97624        -3.77566
C           9.05788         2.66299        -5.03032
C          10.57668         2.66536        -5.03464
C          11.08755         3.35206        -6.28920
C          12.60635         3.35443        -6.29352
C          13.11773         4.04119        -7.54818
C          14.63710         4.04439        -7.55403
C          15.14985         4.73143        -8.80921
C          16.67041         4.73639        -8.81827
C          17.18739         5.42378       -10.07407
C          18.71020         5.42951       -10.08454
C          19.23953         6.11567       -11.33811
C          20.75715         6.12084       -11.34755
H           0.53585        -0.59736         0.92611
H           0.51467        -0.63809        -0.84705
H           0.51467         0.91822         0.00482
H           2.79417        -1.12917         0.05921
H           2.79417         0.41948         0.90689
H           2.58220         1.61868        -1.28455
H           2.58220         0.07053        -2.13196
H           4.85468        -0.43494        -1.20928
H           4.85469         1.11386        -0.36152
H           4.61983         2.31093        -2.54875
H           4.61983         0.76237        -3.39638
H           6.89161         0.25733        -2.47397
H           6.89161         1.80610        -1.62622
H           6.65267         3.00259        -3.81217
H           6.65267         1.45386        -4.65989
H           8.92260         0.94730        -3.73447
H           8.92260         2.49605        -2.88673
H           8.68306         3.69232        -5.07219
H           8.68306         2.14354        -5.91994
H          10.95202         1.63623        -4.99311
H          10.95202         3.18499        -4.14537
H          10.71221         4.38119        -6.33073
H          10.71221         2.83243        -7.17847
H          12.98117         2.32511        -6.25165
H          12.98117         3.87388        -5.40390
H          12.74162         5.07012        -7.58938
H          12.74162         3.52138        -8.43711
H          15.01156         3.01483        -7.51168
H          15.01156         4.56356        -6.66395
H          14.77262         5.76009        -8.84987
H          14.77261         4.21132        -9.69762
H          17.04439         3.70650        -8.77509
H          17.04439         5.25505        -7.92746
H          16.80954         6.45236       -10.11456
H          16.80954         4.90356       -10.96232
H          19.08203         4.39874       -10.03929
H          19.08203         5.94689        -9.19188
H          18.87006         7.14659       -11.38305
H          18.87006         5.59794       -12.23073
H          21.14956         6.65551       -10.47679
H          21.12838         6.61478       -12.24995
H          21.14956         5.09920       -11.32867

