%chk=CCCCCCqCCCrOCCCCqCrO.chk
%NProcShared=20
# opt freq b3lyp/6-31g(2df,p)

Title Card Required 

0  1
C           0.97027        -0.05486        -0.05710
C           2.47559        -0.16318        -0.03960
C           2.91048        -1.34683         0.83958
C           4.41812        -1.36529         0.86392
C           5.10372        -2.31403         1.82815
C           6.64505        -2.15711         1.82135
C           7.15955        -0.77077         2.29665
C           6.85555         0.42690         1.40799
C           7.43922         1.72024         1.91944
O           7.15044        -3.18295         2.70372
C           8.57179        -3.27218         2.68959
C           9.02680        -4.38004         3.61036
C          10.55248        -4.41543         3.64697
C          11.08354        -5.51315         4.56069
C          10.63102        -6.89579         4.11461
O          12.50502        -5.46092         4.56565
H           0.65162         0.75817        -0.71426
H           0.59512         0.14607         0.95116
H           0.53258        -0.99051        -0.41391
H           2.89682         0.78001         0.33988
H           2.86220        -0.28414        -1.05923
H           2.50839        -2.29268         0.47346
H           2.54314        -1.18169         1.86061
H           4.58263        -0.37697         1.23612
H           4.84791        -1.44092        -0.14169
H           4.83558        -3.34772         1.57649
H           4.73063        -2.14949         2.84690
H           7.01337        -2.37469         0.81002
H           8.25048        -0.78826         2.35821
H           6.81444        -0.60427         3.32446
H           5.81378         0.69091         1.42189
H           7.14747         0.21972         0.37315
H           7.06283         1.91325         2.93019
H           7.08299         2.53226         1.27619
H           8.52741         1.70904         1.92502
H           9.01827        -2.35620         3.07733
H           8.92343        -3.44961         1.66724
H           8.60014        -5.32234         3.25516
H           8.62762        -4.21590         4.61923
H          10.94535        -3.44593         3.98547
H          10.95263        -4.54649         2.63210
H          10.75123        -5.32726         5.58955
H          10.95916        -7.09517         3.08807
H           9.54388        -7.00246         4.15668
H          11.06774        -7.66828         4.75226
H          12.81514        -5.63509         3.65075

