%chk=CCCCqCrqCrC1CCqCCrC1C.chk
%NProcShared=20
# opt freq b3lyp/6-31g(2df,p)

Title Card Required 

0  1
C           0.91099        -0.06739        -0.12493
C           2.42619        -0.05402        -0.16472
C           3.01665        -1.44748        -0.43542
C           4.57207        -1.51128        -0.52935
C           5.03040        -1.20738        -1.96958
C           5.02835        -2.95591        -0.28851
C           5.20357        -0.47624         0.44233
C           6.73479        -0.29458         0.58412
C           6.67708        -0.90750         2.00692
C           7.20437        -2.33869         2.09799
C           7.16525        -2.86124         3.51870
C           5.13744        -0.60718         2.01136
C           4.15411        -1.53048         2.70852
H           0.53891         0.93722         0.10150
H           0.54852        -0.74453         0.65496
H           0.49895        -0.38118        -1.08681
H           2.75894         0.32236         0.80895
H           2.76629         0.65853        -0.92344
H           2.58641        -1.84211        -1.36496
H           2.66988        -2.12299         0.35668
H           4.66815        -1.98389        -2.65615
H           6.12447        -1.21467        -2.04417
H           4.67414        -0.24076        -2.32898
H           4.56117        -3.65182        -0.99182
H           4.76789        -3.33012         0.69945
H           6.11045        -3.04867        -0.43141
H           4.81999         0.51051         0.13316
H           7.01984         0.77026         0.59995
H           7.36200        -0.78672        -0.15720
H           7.22260        -0.28149         2.72000
H           8.23458        -2.37882         1.71569
H           6.63681        -3.02589         1.50359
H           7.84648        -2.31147         4.16228
H           7.44484        -3.92200         3.52013
H           6.15986        -2.79211         3.94254
H           4.96387         0.39053         2.45367
H           4.26643        -2.57574         2.42393
H           3.12067        -1.24070         2.49806
H           4.28089        -1.48567         3.79375

