%chk=CCCCCCCCCCCqCrCCCCO.chk
%NProcShared=20
# opt freq b3lyp/6-31g(2df,p)

Title Card Required 

0  1
C           0.88967         0.05397         0.00132
C           2.40630         0.05738        -0.00763
C           2.93278         0.56062        -1.34479
C           4.45319         0.56399        -1.35410
C           4.96991         1.06634        -2.69206
C           6.48799         1.06240        -2.69238
C           7.00885         1.55550        -4.02691
C           8.52827         1.53945        -4.02522
C           9.02516         2.05070        -5.36097
C          10.54510         2.09820        -5.40291
C          11.05163         2.64502        -6.74498
C          10.52204         4.06280        -7.00348
C          12.58828         2.60732        -6.75444
C          13.15305         3.07797        -8.08997
C          14.67122         3.07315        -8.09927
C          15.17774         3.59316        -9.43625
O          16.59712         3.60293        -9.43967
H           0.51750        -0.30807         0.96338
H           0.49872        -0.59725        -0.78699
H           0.49868         1.06330        -0.16213
H           2.77692        -0.95693         0.18116
H           2.77691         0.69554         0.80306
H           2.56133         1.57516        -1.53482
H           2.56126        -0.07701        -2.15646
H           4.83134        -0.44893        -1.16899
H           4.83184         1.20409        -0.54777
H           4.59935         2.08152        -2.88128
H           4.59587         0.42884        -3.50276
H           6.86075         0.04884        -2.50196
H           6.86434         1.70527        -1.88724
H           6.64375         2.57343        -4.21621
H           6.62913         0.92237        -4.83854
H           8.90055         0.52514        -3.84306
H           8.90550         2.18036        -3.21867
H           8.60348         3.04972        -5.50519
H           8.65040         1.41732        -6.17423
H          10.94038         1.08648        -5.24148
H          10.92039         2.71840        -4.57890
H          10.68414         1.98780        -7.54460
H          10.86258         4.75122        -6.22308
H           9.43073         4.09426        -7.03868
H          10.84315         4.45005        -7.97246
H          12.93130         1.58265        -6.55856
H          12.98058         3.23166        -5.94168
H          12.82825         4.10123        -8.29944
H          12.76607         2.44178        -8.89515
H          15.05854         2.06495        -7.91357
H          15.05464         3.70430        -7.28794
H          14.82187         4.61236        -9.62414
H          14.83154         2.95654       -10.25567
H          16.88226         4.17601        -8.71377

