%chk=CCCCqNCNCCCqCrCrNOC.chk
%NProcShared=20
# opt freq b3lyp/6-31g(2df,p)

Title Card Required 

0  1
C           0.67813        -0.09364         0.18429
C           2.18755        -0.12670         0.12310
C           2.89567         0.91887         1.00378
C           4.46124         0.95180         0.93804
N           5.04795         1.40316        -0.32564
C           4.71932         0.51139        -1.39207
N           5.27231         0.86214        -2.67141
C           4.63246        -0.03233        -3.65282
C           5.01657         0.35799        -5.06491
C           4.45000        -0.60918        -6.11851
C           2.91904        -0.64244        -6.13632
C           4.97373        -0.19712        -7.49211
N           4.90696         1.89295         1.97552
O           6.35692         1.75942         2.10708
C           6.80955         2.75612         3.02585
H           0.28928        -0.77651        -0.58223
H           0.31777         0.90907        -0.07043
H           0.29637        -0.39425         1.15741
H           2.31259         0.05977        -0.93144
H           2.58791        -1.12733         0.31466
H           2.60264         0.70504         2.04255
H           2.50390         1.91884         0.77710
H           4.83806        -0.04772         1.19883
H           6.05619         1.44627        -0.18874
H           3.68398         0.70544        -1.59407
H           4.90544        -0.54194        -1.14027
H           6.28337         0.75429        -2.67781
H           3.53714         0.03159        -3.56159
H           4.90782        -1.07686        -3.45557
H           6.11056         0.37159        -5.13709
H           4.66312         1.37698        -5.26816
H           4.81178        -1.62248        -5.89982
H           2.50518         0.35382        -6.32453
H           2.50800        -1.00798        -5.19022
H           2.55546        -1.31492        -6.92076
H           4.63464         0.81168        -7.75186
H           4.62511        -0.88649        -8.26649
H           6.06873        -0.19951        -7.50411
H           4.58462         1.53023         2.87207
H           7.90268         2.76758         3.01971
H           6.47198         2.49807         4.03549
H           6.44410         3.75210         2.75311

