%chk=CCCCCqCCCCOCCrCqCrCCC.chk
%NProcShared=20
# opt freq b3lyp/6-31g(2df,p)

Title Card Required 

0  1
C           1.03467        -0.02579        -0.14840
C           2.55908        -0.04804        -0.26201
C           3.07911         1.16645         0.47715
C           4.58078         1.25323         0.67850
C           5.08990         2.50826         1.46564
C           4.60358         2.55855         2.95298
C           3.10719         2.69054         3.13281
C           2.58777         2.70703         4.54905
C           1.06735         2.62056         4.44793
O           0.52696         2.57720         5.75241
C          -0.89377         2.53656         5.70239
C          -1.38288         2.51959         7.12913
C           6.66223         2.55682         1.41480
C           7.18944         2.53861        -0.03145
C           7.22531         3.79451         2.15247
C           8.75123         3.83919         2.19864
C           9.22971         5.06863         2.94795
H           0.59290        -0.90099        -0.62405
H           0.62562         0.88103        -0.60613
H           0.72012        -0.02287         0.90587
H           2.88691        -0.05052        -1.30434
H           2.93759        -0.95290         0.22673
H           2.61631         0.97450         1.42611
H           2.68284         2.10131         0.07165
H           4.99405         1.25275        -0.33382
H           4.94829         0.35013         1.17677
H           4.71116         3.40543         0.95670
H           5.01783         3.43222         3.46350
H           4.96981         1.67171         3.48030
H           2.65012         1.77323         2.81698
H           2.70589         3.51317         2.53429
H           2.90967         3.59530         5.09946
H           2.96060         1.83059         5.09290
H           0.76671         1.71156         3.90383
H           0.67532         3.48564         3.89919
H          -1.22751         1.63812         5.16976
H          -1.26949         3.42371         5.18032
H          -0.99873         1.63661         7.65053
H          -2.47368         2.51492         7.16579
H          -1.00533         3.39574         7.66663
H           7.04020         1.65898         1.92233
H           6.83342         3.41415        -0.58421
H           6.89598         1.63963        -0.57571
H           8.28099         2.52829        -0.06780
H           6.89645         3.80305         3.19508
H           6.83283         4.70761         1.68734
H           9.17680         3.87516         1.19337
H           9.12804         2.93452         2.68991
H           8.87444         5.97927         2.45487
H          10.32255         5.09180         2.96632
H           8.86444         5.06887         3.97930

