%chk=CCCCC1qCdOrOCCC1C.chk
%NProcShared=20
# opt freq b3lyp/6-31g(2df,p)

Title Card Required 

0  1
C           1.06666         0.03744         0.09336
C           2.58952         0.06527         0.10758
C           3.11908        -0.98082        -0.85155
C           4.65039        -1.08372        -0.89126
C           5.12134        -2.16256        -1.89878
C           5.01351        -1.56569        -3.31804
O           5.35721        -2.13753        -4.35487
O           6.49914        -2.51251        -1.66040
C           6.68250        -3.84272        -2.18088
C           5.39490        -4.58155        -1.90086
C           4.35791        -3.48783        -1.71999
C           3.15472        -3.66047        -2.63964
H           0.66665         0.78443         0.78226
H           0.68833        -0.94618         0.39589
H           0.68030         0.24782        -0.91014
H           2.95020        -0.14779         1.11911
H           2.94944         1.05551        -0.18545
H           2.73696        -0.76698        -1.85698
H           2.68954        -1.93630        -0.53305
H           5.03645        -1.30593         0.11143
H           5.07236        -0.10511        -1.15843
H           4.56935        -0.55914        -3.38184
H           7.54738        -4.32157        -1.71312
H           6.87256        -3.79070        -3.25847
H           5.49227        -5.14803        -0.96560
H           5.14164        -5.30099        -2.68452
H           4.01697        -3.57291        -0.67779
H           3.45672        -3.67520        -3.68964
H           2.42657        -2.85436        -2.52603
H           2.63934        -4.59866        -2.42525

