%chk=CCCCqCrCCqCrCCCqOrCC.chk
%NProcShared=20
# opt freq b3lyp/6-31g(2df,p)

Title Card Required 

0  1
C           0.94254         0.07714        -0.07845
C           2.44982         0.09388        -0.06825
C           3.05771        -1.08940        -0.83012
C           4.59569        -1.09297        -0.72221
C           4.97877        -1.12001         0.76075
C           5.18862        -2.27498        -1.53179
C           6.73639        -2.33793        -1.57963
C           7.38992        -2.52144        -0.20498
C           7.18457        -3.49349        -2.49162
C           8.71057        -3.54560        -2.57956
C           9.21451        -4.71266        -3.39607
O           8.74607        -4.60224        -4.72796
C          10.74263        -4.71821        -3.35042
C          11.29313        -5.89015        -4.13343
H           0.57190         0.91710         0.51733
H           0.57564        -0.84764         0.37830
H           0.55571         0.15848        -1.09455
H           2.71360         0.07022         0.98988
H           2.83855         1.03475        -0.47399
H           2.75483        -1.03857        -1.88390
H           2.66193        -2.03288        -0.43224
H           4.97170        -0.16382        -1.17094
H           4.82974        -2.11664         1.18667
H           4.44240        -0.40818         1.38003
H           5.98801        -0.76913         0.92341
H           4.82010        -2.19770        -2.56755
H           4.79071        -3.22561        -1.15210
H           7.09464        -1.39826        -2.02138
H           6.90350        -3.32417         0.35643
H           7.41301        -1.60016         0.35882
H           8.45468        -2.73191        -0.22922
H           6.75859        -3.36757        -3.49488
H           6.80276        -4.44529        -2.10038
H           9.16478        -3.67979        -1.59844
H           9.07349        -2.59126        -2.98266
H           8.82716        -5.64802        -2.97062
H           9.03708        -3.73026        -5.06731
H          11.09415        -4.77375        -2.31162
H          11.13389        -3.78480        -3.77465
H          10.93706        -6.83221        -3.70501
H          12.38501        -5.88399        -4.10650
H          10.97194        -5.84124        -5.17756

