%chk=CCCCC1CqCrC1CCCCCqCrC.chk
%NProcShared=20
# opt freq b3lyp/6-31g(2df,p)

Title Card Required 

0  1
C           0.97749        -0.04002        -0.10624
C           2.49641        -0.03988        -0.10529
C           3.03643        -0.62577         1.19305
C           4.56320        -0.61664         1.21963
C           5.05295        -1.24924         2.48604
C           5.32296        -2.73357         2.58612
C           5.14742        -3.65067         1.41966
C           6.46792        -1.75193         2.60682
C           7.22516        -1.50616         3.87849
C           8.31171        -0.45667         3.65725
C           9.10725        -0.22587         4.93266
C          10.22989         0.78732         4.71175
C          11.05558         1.02523         5.98585
C          11.71849        -0.26114         6.48292
C          12.12416         2.08630         5.72483
H           0.59844         0.38273        -1.04093
H           0.58742         0.55811         0.72365
H           0.58725        -1.05819        -0.00730
H           2.86140         0.98572        -0.23121
H           2.86090        -0.62418        -0.95809
H           2.66782        -1.65196         1.31799
H           2.65499        -0.05176         2.04723
H           4.93215         0.41372         1.16698
H           4.95468        -1.12629         0.33271
H           4.62466        -0.75765         3.35679
H           5.05094        -3.22711         3.51466
H           5.44613        -3.19507         0.47039
H           4.09893        -3.95073         1.33597
H           5.75546        -4.55005         1.54977
H           7.11407        -1.73127         1.73412
H           7.67913        -2.44558         4.21570
H           6.55186        -1.17572         4.68108
H           7.86519         0.48328         3.31215
H           8.99012        -0.79877         2.86540
H           9.52103        -1.18896         5.24739
H           8.44596         0.12426         5.73421
H           9.79460         1.73806         4.37635
H          10.88579         0.44050         3.90277
H          10.38677         1.39871         6.77186
H          12.37333        -0.68543         5.71419
H          10.97918        -1.02032         6.75412
H          12.31623        -0.07077         7.37899
H          12.82144         1.76028         4.94538
H          12.70086         2.28545         6.63398
H          11.67026         3.02881         5.40159

