%chk=CCCCqCrqCCrNNqOrCO.chk
%NProcShared=20
# opt freq b3lyp/6-31g(2df,p)

Title Card Required 

0  1
C           0.80903        -0.11307         0.02987
C           2.31988        -0.07904        -0.01472
C           3.04043        -0.54880         1.25428
C           4.61110        -0.44326         1.19262
C           5.14154        -1.36827         0.07633
C           5.05565         1.04759         1.00035
C           4.77261         1.79795        -0.29675
N           5.10370        -0.96876         2.52555
N           6.56663        -1.06535         2.61267
O           7.15588         0.25512         2.75711
C           6.97321        -1.71282         3.87459
O           8.39168        -1.83620         3.92387
H           0.42732         0.31868        -0.90415
H           0.43712         0.50763         0.85053
H           0.42369        -1.12789         0.12743
H           2.52344         0.96856        -0.16945
H           2.67409        -0.62266        -0.89468
H           2.74366        -1.58852         1.45493
H           2.67458         0.04073         2.10663
H           4.80865        -1.05433        -0.91557
H           4.79657        -2.40010         0.22130
H           6.23605        -1.38636         0.04566
H           6.13954         1.09496         1.02513
H           4.69068         1.64475         1.84675
H           4.91924         1.16755        -1.17601
H           5.46139         2.64552        -0.37673
H           3.78854         2.26450        -0.32360
H           4.70267        -1.90536         2.64412
H           7.64848         0.31189         1.91560
H           6.56829        -2.72613         3.94794
H           6.64951        -1.13962         4.75093
H           8.63767        -2.08698         3.02006

