%chk=CCCCCCtCCOCtCCCCCCC.chk
%NProcShared=20
# opt freq b3lyp/6-31g(2df,p)

Title Card Required 

0  1
C           0.89864        -0.07614         0.02587
C           2.41687        -0.06799         0.03400
C           2.94632         0.94523         1.04305
C           4.47003         0.95838         1.05615
C           4.98471         1.97293         2.06651
C           6.50471         1.97293         2.06651
C           7.80856         1.97293         2.06651
C           9.32856         1.97293         2.06651
O           9.87416         0.81626         1.40558
C          11.22189         0.81057         1.40223
C          12.52575         0.81057         1.40223
C          14.04575         0.81057         1.40223
C          14.55903        -0.61264         1.53272
C          16.08201        -0.62642         1.53398
C          16.60171        -2.05262         1.66470
C          18.12642        -2.07418         1.66667
C          18.64229        -3.49590         1.79699
H           0.52702        -0.80512        -0.70011
H           0.50581         0.90893        -0.24500
H           0.50580        -0.34295         1.01206
H           2.78590         0.17599        -0.96883
H           2.78590        -1.06980         0.28211
H           2.57254         0.70049         2.04475
H           2.57255         1.94591         0.79418
H           4.85070         1.20192         0.05599
H           4.85070        -0.04076         1.30382
H           4.63160         1.72987         3.07497
H           4.63159         2.98038         1.81928
H           9.67655         1.99393         3.10664
H           9.67653         2.87970         1.55652
H          14.39812         1.42935         2.23518
H          14.39818         1.26761         0.47069
H          14.17916        -1.22425         0.70457
H          14.17915        -1.06346         2.45827
H          16.45618        -0.01609         2.36447
H          16.45617        -0.17724         0.60636
H          16.22260        -2.65985         0.83425
H          16.22260        -2.49876         2.59170
H          18.50693        -1.46962         2.49756
H          18.50693        -1.63075         0.73971
H          18.29539        -3.95138         2.72947
H          19.73652        -3.50284         1.79763
H          18.29539        -4.11332         0.96285

