%chk=CCCCCCCCCCqCCrCOCqCrC.chk
%NProcShared=20
# opt freq b3lyp/6-31g(2df,p)

Title Card Required 

0  1
C           0.86195         0.03061        -0.00184
C           2.37809         0.02695        -0.00498
C           2.89884        -0.97906        -1.01759
C           4.41722        -0.99020        -1.03755
C           4.88820        -1.99414        -2.07350
C           6.39459        -2.00524        -2.14994
C           6.84704        -2.98275        -3.22823
C           8.35563        -2.98474        -3.21598
C           8.98534        -4.02933        -4.10460
C          10.52670        -4.03889        -4.01339
C          11.10934        -4.42792        -2.63040
C          10.88078        -3.45488        -1.47773
C          11.01539        -5.03272        -5.08074
O          12.43705        -5.02129        -5.18928
C          12.92577        -5.99297        -6.12277
C          12.48131        -5.66456        -7.54626
C          14.44856        -5.98825        -6.04739
H           0.48692         0.75424         0.72598
H           0.47290        -0.95849         0.26067
H           0.47342         0.29976        -0.98951
H           2.74975        -0.22444         0.99512
H           2.74929         1.02868        -0.25012
H           2.52317        -0.73021        -2.01840
H           2.52823        -1.98281        -0.77538
H           4.80959        -1.25677        -0.04748
H           4.80100         0.00810        -1.28022
H           4.47775        -1.73903        -3.05825
H           4.52649        -2.99632        -1.81564
H           6.80751        -2.30012        -1.17261
H           6.78051        -1.00152        -2.36335
H           6.45872        -2.69559        -4.21364
H           6.47097        -3.98505        -2.99676
H           8.58971        -3.22314        -2.18577
H           8.75753        -1.99177        -3.43313
H           8.67958        -3.82479        -5.14231
H           8.59374        -5.02177        -3.85581
H          10.91078        -3.04425        -4.27537
H          12.19725        -4.51853        -2.73335
H          10.73744        -5.41703        -2.34176
H          10.98521        -2.41379        -1.79844
H          11.59334        -3.64466        -0.67117
H           9.90918        -3.59698        -1.00090
H          10.58255        -4.72991        -6.03898
H          10.67014        -6.04607        -4.84273
H          12.56417        -6.98650        -5.82984
H          12.76650        -4.64010        -7.80920
H          11.39442        -5.72868        -7.65400
H          12.91717        -6.35790        -8.26990
H          14.84852        -4.99542        -6.28155
H          14.87895        -6.71179        -6.74737
H          14.78956        -6.23703        -5.03705

