%chk=CCCCCC1CCCCCqCrCCC1.chk
%NProcShared=20
# opt freq b3lyp/6-31g(2df,p)

Title Card Required 

0  1
C           0.86289        -0.21627         0.00426
C           2.36581        -0.38123        -0.12527
C           2.73500        -1.22102        -1.40524
C           4.19705        -1.69423        -1.44532
C           5.03977        -2.15898        -2.61601
C           6.54534        -1.59269        -2.51984
C           7.06554        -0.95712        -3.85510
C           6.73762         0.49064        -4.26991
C           5.30325         0.95474        -4.05863
C           5.04931         2.15732        -3.12752
C           5.60917         2.22985        -1.66638
C           7.10082         2.34774        -1.58055
C           5.16271         1.11434        -0.74482
C           6.18313         0.00307        -0.25874
C           7.07977        -0.82917        -1.24073
H           0.60352         0.32477         0.92199
H           0.37684        -1.19153         0.02220
H           0.47926         0.36506        -0.84089
H           2.78811        -0.82219         0.78654
H           2.73245         0.65003        -0.15159
H           2.54055        -0.57141        -2.27284
H           2.08370        -2.08441        -1.45923
H           4.48156        -2.20681        -0.51147
H           4.64825        -0.78209        -1.47221
H           4.59074        -1.84653        -3.56491
H           5.05642        -3.25121        -2.64483
H           7.13098        -2.53066        -2.48877
H           6.74828        -1.61117        -4.67728
H           8.16539        -1.02846        -3.85543
H           6.95430         0.55123        -5.34846
H           7.46509         1.20342        -3.88433
H           4.65100         0.13518        -3.77341
H           4.92293         1.24313        -5.05223
H           3.95067         2.25175        -3.07765
H           5.38240         3.06052        -3.65149
H           5.16023         3.13957        -1.24047
H           7.54375         1.49970        -2.07123
H           7.44171         2.30913        -0.54291
H           7.47813         3.23910        -2.06682
H           4.26802         0.79833        -1.26855
H           4.72480         1.51838         0.17842
H           5.64994        -0.72318         0.37434
H           6.83874         0.47219         0.48587
H           7.56292        -1.59401        -0.60728
H           7.96285        -0.24271        -1.52069

