%chk=CCCCOCqCrCCqCrCC.chk
%NProcShared=20
# opt freq b3lyp/6-31g(2df,p)

Title Card Required 

0  1
C           0.94996         0.05532         0.03490
C           2.45938         0.05301         0.08749
C           2.95875         0.70446         1.37829
C           4.46865         0.67860         1.35093
O           5.04217         1.38649         2.44892
C           6.48404         1.42221         2.34660
C           6.86812         2.13818         1.04814
C           7.05140         2.11673         3.61611
C           8.60624         2.15946         3.72178
C           9.27296         2.94230         2.58579
C           9.05547         2.78101         5.06424
C          10.57786         2.78316         5.22119
H           0.60414        -0.43125        -0.88146
H           0.56927         1.08072         0.04804
H           0.54002        -0.48236         0.89348
H           2.85108         0.59134        -0.78640
H           2.83592        -0.97453         0.01660
H           2.58404         0.19163         2.26724
H           2.61571         1.74458         1.43608
H           4.70889         1.17317         0.41299
H           4.85597        -0.34491         1.32047
H           6.84320         0.38850         2.33942
H           6.67971         3.20898         1.12655
H           6.35389         1.79516         0.15492
H           7.89145         1.92943         0.75814
H           6.65577         1.58156         4.49547
H           6.63270         3.12601         3.70287
H           8.96308         1.12456         3.69329
H           8.76850         3.89441         2.41115
H           9.32569         2.35388         1.67495
H          10.32944         3.14422         2.74408
H           8.62213         2.21614         5.89947
H           8.68383         3.80765         5.14220
H          10.97965         1.77233         5.10940
H          10.86966         3.17886         6.19632
H          11.07248         3.42549         4.48627

