%chk=CCCCOCC1CC1CdCCOC.chk
%NProcShared=20
# opt freq b3lyp/6-31g(2df,p)

Title Card Required 

0  1
C           1.03983         0.05052         0.04859
C           2.55735         0.06854         0.05054
C           3.08147         1.48930         0.24047
C           4.59808         1.51515         0.23621
O           5.05360         2.86660         0.40092
C           6.47401         2.87441         0.37837
C           7.08029         4.20950         0.66783
C           7.66378         4.84079        -0.58429
C           6.78860         5.66702         0.29685
C           7.46657         6.70560         1.10985
C           6.85691         7.55583         1.96350
C           7.57573         8.57848         2.78669
O           6.61352         9.29751         3.56023
C           7.24139        10.28699         4.36780
H           0.67042        -0.96964        -0.08998
H           0.64652         0.67128        -0.76263
H           0.64682         0.43261         0.99600
H           2.92701        -0.34538        -0.89540
H           2.92846        -0.58058         0.85286
H           2.71421         1.90916         1.18446
H           2.70585         2.14469        -0.55409
H           4.97546         1.11004        -0.71180
H           4.98194         0.89425         1.05622
H           6.82227         2.48331        -0.58700
H           6.84075         2.17808         1.14404
H           7.58254         4.15469         1.62764
H           7.22794         4.58978        -1.55116
H           8.73724         4.95733        -0.62690
H           5.81163         5.94116        -0.08303
H           8.55211         6.76829         1.02824
H           5.77962         7.50322         2.06777
H           8.10443         9.28382         2.13611
H           8.28444         8.09235         3.46688
H           6.47357        10.81264         4.94235
H           7.76676        11.01455         3.74124
H           7.94175         9.82062         5.06774

