%chk=CCCC1CC2qCCCCCCCCCCqCCrC2rCN1.chk
%NProcShared=20
# opt freq b3lyp/6-31g(2df,p)

Title Card Required 

0  1
C           0.75367        -0.00561         0.01217
C           2.25920         0.11548         0.05964
C           2.81580         0.72637        -1.21736
C           4.35248         0.87524        -1.18969
C           5.00431        -0.44801        -1.45794
C           5.75190        -1.01792        -0.25927
C           7.26475        -1.43392        -0.58233
C           7.50169        -2.86227        -1.10900
C           8.90842        -3.40399        -1.29508
C           8.83185        -4.84439        -1.88439
C           8.10858        -5.86769        -0.97450
C           6.65889        -6.21322        -1.38801
C           5.69575        -6.16956        -0.17807
C           4.21973        -5.85368        -0.47662
C           3.75565        -4.52166         0.17920
C           4.11038        -3.18326        -0.58395
C           4.56217        -3.52777        -2.03219
C           4.98041        -2.60871        -3.16882
C           4.98722        -2.25070         0.35852
C           5.74691         0.24321         0.65216
N           4.97331         1.34229         0.02819
H           0.38872        -0.38415         0.97075
H           0.44141        -0.70083        -0.77360
H           0.29983         0.96983        -0.17823
H           2.66503        -0.88062         0.22009
H           2.55465         0.72127         0.91903
H           2.35308         1.70026        -1.41022
H           2.51959         0.09528        -2.07305
H           4.60250         1.53354        -2.03268
H           5.67558        -0.26747        -2.29748
H           4.18609        -1.09749        -1.72059
H           7.84853        -1.34187         0.34098
H           7.68575        -0.71595        -1.29586
H           7.11520        -2.95107        -2.11088
H           6.98289        -3.56223        -0.46137
H           9.45216        -3.40657        -0.34676
H           9.45397        -2.76348        -1.99882
H           9.85941        -5.18903        -2.04622
H           8.36237        -4.81666        -2.87748
H           8.14847        -5.50788         0.05937
H           8.67379        -6.80541        -0.98873
H           6.62585        -7.22093        -1.81947
H           6.35326        -5.59119        -2.22599
H           6.05943        -5.45874         0.57037
H           5.73300        -7.15473         0.30185
H           3.59529        -6.65720        -0.06568
H           4.01066        -5.89118        -1.54876
H           4.11597        -4.49142         1.21760
H           2.66115        -4.56397         0.27554
H           3.14513        -2.67567        -0.69003
H           3.78697        -4.15046        -2.48507
H           5.43213        -4.12516        -1.87336
H           4.16808        -1.97809        -3.52997
H           5.38378        -3.18145        -4.00638
H           5.82307        -1.98456        -2.91244
H           5.70142        -2.86242         0.92892
H           4.32172        -1.89802         1.16147
H           6.76360         0.60654         0.82203
H           5.31340         0.03958         1.63740
H           5.64861         2.08331        -0.24150

