%chk=CCCCCC1CCCqC2CCCCqCrCqCrC2rC1.chk
%NProcShared=20
# opt freq b3lyp/6-31g(2df,p)

Title Card Required 

0  1
C           0.84621        -0.03035         0.05546
C           2.35648        -0.00295         0.08214
C           2.84629         1.06216         1.05665
C           4.35557         1.05734         1.03365
C           4.96486         2.06029         1.99282
C           6.49279         2.05226         1.91876
C           7.15448         0.90046         1.15261
C           8.54328         1.39206         0.79652
C           8.45041         2.93265         0.80046
C           9.50891         3.55932         1.72675
C           9.52294         5.09734         1.62242
C          10.51571         5.83351         2.52606
C          10.16745         5.73283         4.00782
C          10.73534         4.50748         4.75103
C          12.13611         4.79408         5.28598
C          10.68544         3.16686         3.98705
C          11.93058         2.81444         3.15166
C           9.38981         3.05090         3.17938
C           7.01119         3.28046         1.18580
H           0.49594        -0.79508        -0.64251
H           0.45320         0.93959        -0.26192
H           0.45188        -0.25705         1.05019
H           2.74235         0.20261        -0.92422
H           2.74197        -0.98654         0.37650
H           2.48629         0.85214         2.06974
H           2.47466         2.05004         0.76504
H           4.68174         1.28467         0.01158
H           4.70764         0.05206         1.29374
H           4.65226         1.82321         3.01740
H           4.57453         3.06578         1.78815
H           6.86810         2.06541         2.94878
H           6.65820         0.68737         0.20176
H           7.16962        -0.02481         1.73668
H           8.84546         1.01532        -0.18642
H           9.28135         0.98868         1.49692
H           8.63578         3.29339        -0.21949
H          10.45007         3.20899         1.28747
H           8.52528         5.50444         1.83624
H           9.73621         5.37045         0.58314
H          10.48271         6.89209         2.24555
H          11.54741         5.51954         2.33281
H           9.07227         5.74901         4.11967
H          10.51011         6.64225         4.51508
H          10.09085         4.38011         5.63430
H          12.83646         4.99735         4.47124
H          12.50675         3.93840         5.86158
H          12.12928         5.66377         5.94831
H          10.63610         2.38479         4.76005
H          12.15336         3.55728         2.38227
H          11.79271         1.85235         2.64543
H          12.82778         2.73047         3.76798
H           8.55843         3.55482         3.69319
H           9.11663         1.99327         3.21484
H           6.42877         3.46439         0.27444
H           6.91583         4.17155         1.81090

