%chk=CCCqCqCrCrCqOCrOCOC.chk
%NProcShared=20
# opt freq b3lyp/6-31g(2df,p)

Title Card Required 

0  1
C           0.84286        -0.14045        -0.00721
C           2.34638         0.10152         0.01836
C           2.96924         1.28519        -0.79050
C           2.52092         2.67962        -0.20068
C           3.06183         3.91087        -0.93773
C           0.99906         2.87585        -0.17248
C           4.55493         1.13864        -0.87701
O           5.01578        -0.03772        -1.54594
C           4.94425        -1.26910        -0.85943
O           5.08526         2.22795        -1.64418
C           6.50257         2.31907        -1.56966
O           6.95824         3.48905        -2.25142
C           8.37904         3.54123        -2.28012
H           0.64492        -1.18321         0.27309
H           0.43542         0.01138        -1.01365
H           0.29192         0.44547         0.71901
H           2.69474        -0.82112        -0.39916
H           2.70689         0.12996         1.05879
H           2.59636         1.21404        -1.82414
H           2.88392         2.73043         0.83645
H           2.82135         3.86158        -2.00599
H           4.13465         4.04683        -0.80539
H           2.61659         4.82852        -0.53698
H           0.54731         2.59537        -1.13122
H           0.72792         3.91618         0.03348
H           0.53535         2.32068         0.63660
H           4.97179         1.19713         0.13922
H           5.75113        -1.92074        -1.20150
H           4.03535        -1.78931        -1.16461
H           5.00797        -1.15542         0.22654
H           6.95493         1.43884        -2.03805
H           6.81224         2.39224        -0.52101
H           8.69011         4.43169        -2.83360
H           8.78588         2.66003        -2.78662
H           8.77925         3.60536        -1.26332

