%chk=CCCqdOrC1OC1qCrCNO.chk
%NProcShared=20
# opt freq b3lyp/6-31g(2df,p)

Title Card Required 

0  1
C           1.00503        -0.08349        -0.04381
C           2.51534        -0.09078        -0.01798
C           3.08064        -0.80268         1.17916
O           2.36689        -1.37839         2.00376
C           4.54617        -0.76304         1.41547
O           5.37193        -1.30638         0.36757
C           5.57010         0.08495         0.66014
C           5.28940         0.99410        -0.50689
C           6.85051         0.43691         1.37614
N           6.81215         1.89795         1.50984
O           8.03769         2.30632         2.14340
H           0.64959         0.45887        -0.92489
H           0.61631         0.41549         0.84912
H           0.61058        -1.10233        -0.07168
H           2.83387         0.95331         0.02945
H           2.89159        -0.57696        -0.92404
H           4.80156        -1.08147         2.42319
H           4.54181         0.66173        -1.21998
H           6.20891         1.14388        -1.08286
H           4.97073         1.97031        -0.12084
H           7.70162         0.14837         0.74700
H           6.95547        -0.05136         2.35092
H           6.06408         2.19233         2.14312
H           8.62176         2.41515         1.36601

