%chk=CCCqCqCrCrC1CC1COC.chk
%NProcShared=20
# opt freq b3lyp/6-31g(2df,p)

Title Card Required 

0  1
C           1.06194        -0.29784        -0.01042
C           2.55741        -0.02722        -0.06716
C           3.03987         1.01645        -1.11257
C           2.55185         2.47805        -0.83429
C           3.12832         3.46693        -1.85666
C           1.03282         2.67747        -0.86512
C           4.57325         0.97989        -1.12603
C           5.31602        -0.23266        -1.63210
C           5.35925         1.04477        -2.42542
C           6.63333         1.83329        -2.52143
O           6.40299         2.96357        -3.36124
C           7.57500         3.75081        -3.52218
H           0.86293        -1.22251         0.53965
H           0.62997        -0.39058        -1.01099
H           0.53012         0.47290         0.54488
H           3.03519        -0.98998        -0.29151
H           2.91347         0.25682         0.93070
H           2.67481         0.70431        -2.10116
H           2.91204         2.77700         0.15927
H           2.81573         3.20082        -2.87224
H           4.21784         3.50432        -1.82048
H           2.77572         4.48320        -1.64924
H           0.58586         2.20525        -1.74587
H           0.77508         3.74218        -0.88593
H           0.54919         2.30458         0.03500
H           4.99306         1.47260        -0.25144
H           4.74731        -1.05990        -2.04513
H           6.20245        -0.54511        -1.08879
H           4.82472         1.04170        -3.37112
H           7.42091         1.21170        -2.96218
H           6.96381         2.17477        -1.53286
H           7.33919         4.59120        -4.18130
H           8.37448         3.16239        -3.98294
H           7.90625         4.14738        -2.55771

