%chk=CCCqCCrCCOCqCCOCrOC.chk
%NProcShared=20
# opt freq b3lyp/6-31g(2df,p)

Title Card Required 

0  1
C           1.04846         0.24654         0.18413
C           2.54988         0.09914         0.01928
C           3.04936        -1.32658        -0.25517
C           2.55219        -1.90153        -1.61709
C           1.05812        -2.13723        -1.80964
C           4.62696        -1.29360        -0.13479
C           5.21391        -2.67629        -0.35900
O           6.61311        -2.84536        -0.46768
C           6.99203        -4.20300        -0.83610
C           6.46191        -4.72766        -2.21602
C           4.95511        -4.91897        -2.31975
O           4.48532        -5.59833        -3.48145
C           3.06301        -5.39476        -3.56371
O           8.42970        -4.22008        -0.84509
C           9.00361        -5.51409        -0.96109
H           0.81645         1.20810         0.64826
H           0.63058        -0.55184         0.80467
H           0.53768         0.25997        -0.77801
H           3.01363         0.44677         0.95008
H           2.89610         0.76731        -0.77752
H           2.68016        -1.99509         0.53385
H           2.96267        -2.90243        -1.72519
H           2.93826        -1.30037        -2.44815
H           0.61866        -2.63763        -0.94216
H           0.89140        -2.77977        -2.68302
H           0.51177        -1.22156        -2.02699
H           4.94319        -0.90810         0.84193
H           5.03626        -0.60879        -0.88674
H           4.90618        -2.78518        -1.37622
H           4.77250        -3.42211         0.29907
H           6.65323        -4.86214        -0.02615
H           6.90349        -5.69897        -2.45276
H           6.80408        -4.05022        -3.00760
H           4.51621        -3.94960        -2.46437
H           4.55993        -5.41092        -1.42559
H           2.69303        -5.76920        -4.51683
H           2.80554        -4.32777        -3.51045
H           2.57174        -5.91680        -2.73622
H          10.08650        -5.42545        -0.84265
H           8.83258        -5.93470        -1.95503
H           8.61511        -6.18733        -0.19185

