%chk=CCdC1CdCdCCdCCdC1CqdOrO.chk
%NProcShared=20
# opt freq b3lyp/6-31g(2df,p)

Title Card Required 

0  1
C           1.38060        -0.05902         0.17925
C           3.03652         0.05253         0.51520
C           4.05895         0.51574         1.45823
C           5.31904         0.59553         0.76671
C           5.99372         1.67944         0.98126
C           6.50876         2.69597         1.61189
C           7.59607         2.36763         2.51455
C           7.00915         2.37359         3.72982
C           5.40974         1.67777         3.91282
C           4.15347         1.33764         3.00722
C           2.53573         1.69005         3.01261
O           1.83022         1.13394         2.17495
O           1.67144         2.45321         3.61674
H           1.12207        -0.68840        -0.70827
H           0.90463         0.90502        -0.10365
H           0.79563        -0.52773         0.98017
H           3.39725        -0.38321        -0.42643
H           5.48045        -0.08688        -0.04601
H           5.79484         3.32778         2.20048
H           8.07538         1.42302         2.18263
H           7.44718         3.16296         4.39315
H           6.27028         0.88686         4.11374
H           1.07153         3.01919         4.11283

