%chk=CCdCCCCdC1CCCCCCCCC1.chk
%NProcShared=20
# opt freq b3lyp/6-31g(2df,p)

Title Card Required 

0  1
C           0.94647        -0.06241        -0.07433
C           2.43348        -0.06176        -0.09574
C           3.16939         0.65692         0.77401
C           4.67121         0.66573         0.73301
C           5.19549         1.55966         1.84310
C           6.69748         1.61460         1.97392
C           7.34896         2.36601         2.89131
C           6.59915         3.24838         3.88576
C           5.57149         2.49899         4.75601
C           5.98676         2.18236         6.18561
C           7.10437         1.13213         6.22576
C           8.45959         1.82377         6.20348
C           9.63906         0.88898         5.99526
C          10.38573         1.19597         4.68571
C           9.49779         1.06043         3.43268
C           8.87226         2.39194         2.95669
H           0.57111        -0.69871        -0.88125
H           0.55634         0.94806        -0.23173
H           0.56601        -0.45498         0.87364
H           2.93625        -0.65727        -0.84820
H           2.66020         1.24207         1.53695
H           5.02984         1.02477        -0.23475
H           5.04070        -0.35438         0.89763
H           4.75625         1.11631         2.73497
H           4.79739         2.57702         1.74214
H           7.27288         0.99902         1.28535
H           6.09268         4.03401         3.30937
H           7.28113         3.81782         4.52429
H           5.34385         1.51411         4.36196
H           4.63052         3.06019         4.74957
H           5.10687         1.76900         6.69427
H           6.26573         3.09955         6.71192
H           7.00362         0.42927         5.38658
H           7.01695         0.53396         7.13891
H           8.58341         2.41993         7.11161
H           8.47559         2.55820         5.41566
H           9.32775        -0.16195         6.00498
H          10.33113         1.02202         6.83474
H          11.22519         0.49429         4.60803
H          10.83049         2.19784         4.73840
H           8.73162         0.29646         3.60954
H          10.12168         0.67519         2.61609
H           9.27307         2.64557         1.96587
H           9.20433         3.22707         3.58537

