%chk=CCOC1CCCCCqCrOCCCCCqCOOrC1.chk
%NProcShared=20
# opt freq b3lyp/6-31g(2df,p)

Title Card Required 

0  1
C           1.00906        -0.36130        -0.07220
C           2.51642        -0.26877         0.00758
O           2.99417         0.43367        -1.13742
C           4.41697         0.57027        -1.13866
C           4.98480        -0.72787        -1.72680
C           5.63520        -1.56700        -0.61316
C           7.12358        -1.24137        -0.49948
C           7.50943        -0.67115         0.87012
C           8.74186         0.24294         0.74182
C          10.00205        -0.49949         1.16331
O           8.55155         1.39443         1.57669
C           9.01992         2.62075         0.99863
C           7.84764         3.56946         0.72346
C           6.92780         2.97638        -0.33367
C           5.82519         3.92186        -0.80877
C           4.52248         3.19193        -1.23966
C           3.59887         3.17143        -0.00413
O           2.26485         2.81435        -0.33399
O           1.60734         2.62859         0.95418
C           4.79533         1.81976        -1.94949
H           0.61055        -0.84130         0.82442
H           0.71347        -0.93080        -0.95687
H           0.54040         0.61642        -0.18585
H           2.92582        -1.28103         0.02752
H           2.82716         0.25411         0.91927
H           4.78453         0.71175        -0.11729
H           5.70429        -0.52952        -2.52946
H           4.17875        -1.31539        -2.18274
H           5.50577        -2.62841        -0.84735
H           5.12802        -1.41064         0.34691
H           7.40354        -0.53162        -1.28516
H           7.70349        -2.15063        -0.69395
H           7.70599        -1.51083         1.55065
H           6.67688        -0.11286         1.31311
H           8.85348         0.56318        -0.29937
H           9.93201        -0.83196         2.20496
H          10.87781         0.15179         1.09333
H          10.16432        -1.37728         0.52902
H           9.59026         2.45312         0.07675
H           9.69572         3.08907         1.71883
H           8.22312         4.54297         0.39033
H           7.26998         3.72508         1.64308
H           6.49105         2.06959         0.08794
H           7.52866         2.68505        -1.20363
H           6.19989         4.50902        -1.65642
H           5.59654         4.65695        -0.02592
H           4.02938         3.82423        -1.99093
H           3.53440         4.17406         0.42951
H           3.99918         2.50993         0.77209
H           0.72927         2.40469         0.57887
H           5.85548         1.75487        -2.22442
H           4.26260         1.80865        -2.90770

