%chk=CCqCrCCCCCCCCqCrOO.chk
%NProcShared=20
# opt freq b3lyp/6-31g(2df,p)

Title Card Required 

0  1
C           0.94921        -0.10432        -0.01147
C           2.47558        -0.13711        -0.03120
C           2.95992        -1.49264        -0.55022
C           3.00303         1.02365        -0.88408
C           4.52460         1.07551        -0.89542
C           5.01894         2.22315        -1.75524
C           6.53657         2.22706        -1.76360
C           7.04768         3.36946        -2.62405
C           8.56419         3.35516        -2.62293
C           9.12907         4.46604        -3.49630
C          10.66046         4.44821        -3.52501
C          11.19949         3.13278        -4.08342
O          11.07587         5.53485        -4.36314
O          12.51749         5.64606        -4.19190
H           0.55379        -0.90914         0.61574
H           0.54046        -0.22544        -1.02057
H           0.58449         0.84696         0.38994
H           2.83692        -0.00908         0.99727
H           2.65485        -1.64484        -1.59113
H           2.55186        -2.30866         0.05279
H           4.04942        -1.58093        -0.50138
H           2.61646         1.97340        -0.49121
H           2.63059         0.93406        -1.91259
H           4.93990         0.14772        -1.30171
H           4.90206         1.18111         0.12901
H           4.64119         3.17719        -1.37077
H           4.64457         2.10812        -2.77995
H           6.91008         1.26982        -2.15165
H           6.91834         2.32617        -0.73967
H           6.67485         4.32621        -2.24202
H           6.67467         3.25385        -3.64917
H           8.88658         2.37548        -2.98978
H           8.94156         3.45921        -1.59844
H           8.78076         5.44107        -3.12994
H           8.73639         4.38105        -4.51807
H          11.04026         4.61789        -2.51008
H          10.83087         2.96890        -5.10157
H          10.91869         2.27622        -3.46494
H          12.29154         3.14406        -4.13415
H          12.65339         6.30041        -4.90639

