%chk=CCqCrc1cqCSrcccc1SN.chk
%NProcShared=20
# opt freq b3lyp/6-31g(2df,p)

Title Card Required 

0  1
C           0.91156        -0.04237        -0.19400
C           2.44672        -0.00221        -0.21342
C           3.30531         0.39325        -1.41152
C           2.88963         0.70110         1.02848
C           3.31542        -0.06167         2.16864
C           3.65980        -1.55733         2.29684
S           3.83459        -2.73294         0.94333
C           3.44225         0.62688         3.39184
C           3.31438         2.01590         3.47585
C           3.00551         2.74991         2.33350
C           2.74108         2.13462         1.10147
S           2.25011         3.38818        -0.15456
N           1.63289         2.76904        -1.55649
H           0.51073        -0.54653        -1.07336
H           0.42809         0.93069        -0.07726
H           0.57679        -0.60829         0.69095
H           2.65885        -1.04769        -0.18678
H           3.57139         1.44562        -1.45824
H           2.84491         0.08694        -2.35029
H           4.29594        -0.07167        -1.32841
H           2.96488        -2.01763         3.00691
H           4.65934        -1.59188         2.74813
H           2.54416        -2.74403         0.56238
H           3.65184         0.08318         4.31430
H           3.46300         2.51728         4.42419
H           2.94297         3.83663         2.43545
H           2.28113         2.82752        -2.34545
H           1.31516         1.80786        -1.54296

