%chk=CCqCrCC1CCCC2CCC2C1.chk
%NProcShared=20
# opt freq b3lyp/6-31g(2df,p)

Title Card Required 

0  1
C           0.75527        -0.37193         0.29161
C           2.28102        -0.46525         0.43752
C           2.85286        -0.58415         1.83476
C           2.93602        -1.38257        -0.64696
C           4.45352        -1.16611        -0.97841
C           4.99300        -1.61529        -2.37776
C           4.87515        -0.63197        -3.56781
C           3.50138        -0.06567        -3.71476
C           3.36176         1.22568        -2.94042
C           3.26882         2.75435        -2.55978
C           2.47624         2.06021        -1.30754
C           3.81766         1.23774        -1.30791
C           4.86899         0.27017        -0.79219
H           0.37133         0.50123         0.83549
H           0.23020        -1.26566         0.62622
H           0.47532        -0.20033        -0.75840
H           2.54936         0.56145         0.27116
H           2.58208        -1.51484         2.32615
H           2.52026         0.26836         2.44179
H           3.94483        -0.50617         1.79536
H           2.35040        -1.24868        -1.55334
H           2.78486        -2.43179        -0.36854
H           5.01286        -1.77637        -0.25361
H           4.56467        -2.58721        -2.64747
H           6.07655        -1.77935        -2.27411
H           5.15774        -1.14302        -4.49087
H           5.57591         0.20895        -3.46618
H           2.77149        -0.81449        -3.35886
H           3.20638         0.04285        -4.77095
H           2.30608         1.24362        -3.31918
H           2.68783         3.45858        -3.09725
H           4.27080         3.18994        -2.33327
H           1.58261         1.45485        -1.57343
H           2.19738         2.65364        -0.44990
H           4.33487         2.04457        -0.73197
H           5.15393         0.44556         0.25663
H           5.81750         0.47592        -1.31751

