%chk=CCqOrqCCCCCCCOrCOO.chk
%NProcShared=20
# opt freq b3lyp/6-31g(2df,p)

Title Card Required 

0  1
C           0.98243         0.00209        -0.05505
C           2.51503        -0.04706        -0.05488
O           2.96831         0.29021         1.26401
C           3.03508        -1.44561        -0.44508
C           2.55398        -2.54784         0.49275
C           3.06378        -3.90803         0.05550
C           2.55070        -4.96138         1.02672
C           3.04472        -6.33563         0.61534
C           2.54219        -7.39554         1.58206
C           3.04266        -8.76799         1.16805
O           2.56130        -9.74600         2.07796
C           3.06355         1.01166        -1.03350
O           4.49464         0.96757        -1.05273
O           4.90702         1.97634        -2.01451
H           0.55324        -0.67689         0.68947
H           0.57546        -0.26063        -1.03699
H           0.62419         0.99874         0.22139
H           2.62223        -0.36416         1.89304
H           4.13251        -1.45468        -0.43614
H           2.72135        -1.68000        -1.47104
H           1.46041        -2.58391         0.51411
H           2.89755        -2.35337         1.51444
H           4.15998        -3.91180         0.03625
H           2.71499        -4.13046        -0.96018
H           1.45346        -4.94746         1.04583
H           2.89235        -4.72767         2.04304
H           4.14116        -6.33911         0.59379
H           2.69805        -6.56095        -0.40039
H           1.44543        -7.39444         1.61597
H           2.87463        -7.16835         2.60273
H           4.13700        -8.80245         1.16225
H           2.68550        -9.02262         0.16606
H           2.89080        -9.51005         2.95763
H           2.75362         2.01465        -0.71993
H           2.69592         0.81859        -2.04815
H           5.86159         1.90118        -1.83143

