%chk=CCSSCCCqOrOCCqCrCCO.chk
%NProcShared=20
# opt freq b3lyp/6-31g(2df,p)

Title Card Required 

0  1
C           1.00123         0.02996        -0.08619
C           2.52294         0.06691        -0.08483
S           3.10561         1.79826        -0.00570
S           5.15737         1.59318        -0.02809
C           5.72723         3.33139         0.06914
C           7.25689         3.39468         0.08281
C           7.75105         4.84046         0.17662
O           7.25548         5.44506         1.35788
O           9.17364         4.85749         0.21047
C           9.68695         6.19260         0.20821
C          11.22128         6.16245         0.16891
C          11.70802         5.45455        -1.09889
C          11.76438         7.59739         0.26542
C          13.28638         7.66328         0.29423
O          13.70253         9.01818         0.39788
H           0.64888        -1.00657        -0.13531
H           0.58583         0.55819        -0.95130
H           0.58617         0.47400         0.82515
H           2.89741        -0.40593        -0.99841
H           2.89830        -0.48868         0.78058
H           5.32266         3.78130         0.98185
H           5.34220         3.88366        -0.79481
H           7.67631         2.92976        -0.81879
H           7.64746         2.82713         0.93765
H           7.39851         5.40842        -0.69202
H           7.62538         4.91635         2.08270
H           9.36013         6.70591         1.12000
H           9.29687         6.73691        -0.66033
H          11.57820         5.58435         1.03164
H          11.38924         5.99888        -1.99412
H          11.31640         4.43489        -1.15980
H          12.79839         5.37283        -1.12045
H          11.37566         8.08343         1.17087
H          11.38876         8.20228        -0.57036
H          13.73246         7.25058        -0.61423
H          13.68087         7.11362         1.15385
H          13.41355         9.47022        -0.41154

