%chk=CdCCCCCqCrCCCCCCqCrCC.chk
%NProcShared=20
# opt freq b3lyp/6-31g(2df,p)

Title Card Required 

0  1
C           1.01721         0.01702         0.08030
C           2.35737         0.04207         0.10205
C           3.11984         1.20985         0.64684
C           4.61321         0.96207         0.52872
C           5.41502         2.14946         1.04777
C           6.92200         1.90714         0.90179
C           7.30749         1.67623        -0.56572
C           7.67730         3.10380         1.48774
C           9.17759         2.88669         1.41939
C           9.91790         4.08091         1.98158
C          11.40286         3.81966         1.84601
C          12.20764         5.00241         2.35641
C          13.71408         4.75527         2.20535
C          14.08627         4.51783         0.73614
C          14.48547         5.94904         2.78738
C          15.98991         5.74076         2.72406
H           0.48610        -0.83758        -0.31943
H           0.44134         0.85205         0.46213
H           2.91016        -0.80726        -0.29295
H           2.85777         1.37580         1.69723
H           2.86299         2.11252         0.07883
H           4.83659         0.78379        -0.52770
H           4.90209         0.05773         1.07925
H           5.16828         2.32235         2.10395
H           5.13040         3.06004         0.50506
H           7.18928         1.01212         1.47986
H           7.05728         2.55474        -1.16968
H           6.80393         0.80646        -0.99099
H           8.37204         1.46541        -0.68500
H           7.38415         3.25793         2.53443
H           7.41033         4.01995         0.94558
H           9.50257         2.75490         0.38223
H           9.45095         1.97320         1.96189
H           9.64638         4.24771         3.02817
H           9.64897         4.98019         1.41348
H          11.60995         3.63826         0.78624
H          11.68360         2.90923         2.38994
H          11.95840         5.17500         3.41150
H          11.91736         5.90872         1.80974
H          13.97371         3.85695         2.78174
H          13.82694         5.39177         0.12935
H          13.57893         3.64577         0.31717
H          15.15081         4.31089         0.61393
H          14.19303         6.10303         3.83403
H          14.21919         6.86561         2.24674
H          16.27419         4.83422         3.26755
H          16.51368         6.59306         3.16205
H          16.33955         5.64609         1.69250

