%chk=CdCCOCCCOCOC1CCCqCrN1C.chk
%NProcShared=20
# opt freq b3lyp/6-31g(2df,p)

Title Card Required 

0  1
C           1.02165        -0.07966        -0.04237
C           2.36423        -0.08143        -0.08750
C           3.11345        -0.13164        -1.37620
O           4.51482        -0.12084        -1.11062
C           5.24150        -0.16908        -2.33684
C           6.73572        -0.15779        -2.06087
C           7.50156        -0.20810        -3.37270
O           8.90361        -0.19208        -3.11942
C           9.62359        -0.24810        -4.34759
O          11.02444        -0.24686        -4.12689
C          11.73792        -0.29921        -5.35289
C          12.82319         0.76444        -5.34883
C          13.79549         0.24263        -6.38232
C          13.75109        -1.27440        -6.19032
C          14.02395        -2.00567        -7.50655
N          12.46080        -1.56383        -5.52550
C          11.63799        -2.56376        -6.19194
H           0.49282        -0.04298         0.90276
H           0.43115        -0.11512        -0.95222
H           2.93603        -0.04566         0.83502
H           2.85839         0.74266        -1.98578
H           2.85875        -1.05090        -1.91575
H           4.97050         0.69834        -2.95102
H           4.97071        -1.08197        -2.88125
H           7.01405        -1.00494        -1.42245
H           7.01347         0.73613        -1.48962
H           7.23597         0.65738        -3.99220
H           7.24040        -1.12210        -3.92052
H           9.35726         0.62953        -4.94846
H           9.33966        -1.16166        -4.87994
H          11.08477        -0.10681        -6.21638
H          13.29755         0.86244        -4.36526
H          12.42487         1.74778        -5.62187
H          14.79924         0.65505        -6.24023
H          13.45136         0.52017        -7.38638
H          14.54435        -1.55142        -5.48237
H          13.25281        -1.77995        -8.25172
H          14.04875        -3.09023        -7.35541
H          14.98604        -1.71144        -7.93385
H          12.16184        -3.52293        -6.25724
H          11.35639        -2.24646        -7.20287
H          10.71524        -2.76236        -5.64164

