%chk=CdCCqCrCqCCCrOCCCO.chk
%NProcShared=20
# opt freq b3lyp/6-31g(2df,p)

Title Card Required 

0  1
C           0.77429        -0.05895        -0.07196
C           2.09640        -0.06641        -0.30489
C           2.97708        -1.30103        -0.32728
C           2.68659        -2.00460        -1.65337
C           4.50622        -0.99840        -0.15145
C           4.86029        -0.37843         1.22525
C           4.17764         0.94248         1.53029
C           4.61237         1.54904         2.84094
O           5.25022        -2.23314        -0.31143
C           6.66265        -2.02662        -0.35735
C           7.40286        -3.33567        -0.55524
C           8.90203        -3.07374        -0.49757
O           9.62435        -4.28114        -0.67048
H           0.23978         0.88306        -0.01000
H           0.21157        -0.97719         0.04179
H           2.57508         0.89579        -0.46322
H           2.68443        -1.97876         0.48780
H           2.93746        -1.35219        -2.49710
H           1.62001        -2.25075        -1.73063
H           3.24282        -2.93882        -1.75358
H           4.81566        -0.31732        -0.95606
H           5.93499        -0.17799         1.27787
H           4.65983        -1.11594         2.01235
H           3.10586         0.79224         1.64083
H           4.36878         1.64853         0.71328
H           4.35843         0.87401         3.66319
H           4.06930         2.48756         2.98786
H           5.68479         1.75204         2.85490
H           7.01035        -1.62402         0.59612
H           6.90807        -1.31896        -1.15700
H           7.12233        -3.80589        -1.50412
H           7.11360        -4.05415         0.22215
H           9.19018        -2.63330         0.46423
H           9.20361        -2.37669        -1.28645
H           9.35732        -4.88401         0.04445

