%chk=CdCdNCCqdOrNCCCqNOCrd[N+]qCr[O-].chk
%NProcShared=20
# opt freq b3lyp/6-31g(2df,p)

Title Card Required 

0  1
C           1.16807        -0.08724         0.00389
C           2.46628        -0.09810        -0.01068
N           3.64164        -0.06996         0.06489
C           4.40661        -0.55277        -1.10808
C           5.92126        -0.43580        -0.82343
O           6.39586        -0.00355         0.22677
N           6.76300        -0.86131        -1.85666
C           8.19154        -0.77469        -1.64635
C           9.08647        -1.24120        -2.77964
C          10.57931        -1.14451        -2.54477
N          11.11142        -0.66973        -1.39139
O          10.27977        -0.24901        -0.36938
C          10.97326         0.22053         0.77125
N          11.38851        -1.52302        -3.46426
C          10.97507        -2.06518        -4.78130
O          12.64720        -1.43018        -3.23870
H           0.61587         0.84723        -0.01968
H           0.59878        -0.99775         0.15581
H           4.17927         0.05422        -1.99217
H           4.17908        -1.60630        -1.30821
H           6.38841        -1.21825        -2.72424
H           8.40429        -1.38408        -0.76021
H           8.40427         0.28195        -1.44604
H           8.83914        -0.65283        -3.67369
H           8.83914        -2.28847        -3.00038
H          12.12834        -0.62479        -1.28224
H          10.22445         0.52572         1.51262
H          11.57765         1.09091         0.51203
H          11.57765        -0.58010         1.19990
H           9.89301        -2.11041        -4.89117
H          11.37486        -3.07747        -4.88323
H          11.37486        -1.41803        -5.56635

