%chk=CdCqCCrCCCNCqCrCqCrCqCrCO.chk
%NProcShared=20
# opt freq b3lyp/6-31g(2df,p)

Title Card Required 

0  1
C           0.93747         0.09448        -0.14800
C           2.27072         0.03370        -0.05943
C           3.01919        -0.65094         1.07153
C           2.13357        -1.29287         2.12092
C           3.09290         0.68512        -1.14332
C           4.59846         0.53163        -0.95223
C           5.30081         1.22292        -2.08606
N           6.74145         1.15238        -1.87334
C           7.47578         1.86068        -2.93440
C           6.99584         3.31928        -2.91541
C           9.02663         1.69657        -2.73349
C           9.40046         0.18821        -2.66629
C           9.88663         2.40180        -3.84626
C           9.69613         3.92256        -3.96446
C          11.39474         2.18477        -3.62258
O          12.15421         2.79062        -4.66401
H           0.28535        -0.35359         0.59556
H           0.44024         0.60036        -0.97228
H           3.66687         0.07838         1.57446
H           3.66798        -1.43220         0.65642
H           1.49924        -0.53878         2.59705
H           2.73962        -1.76805         2.89572
H           1.49912        -2.05949         1.66519
H           2.84104         1.75544        -1.18426
H           2.81504         0.25858        -2.11676
H           4.89391        -0.52151        -0.92551
H           4.90622         1.00572        -0.01049
H           4.92543         2.24427        -2.04545
H           5.03047         0.78719        -3.05385
H           7.00576         0.16888        -1.84626
H           7.21899         1.40484        -3.89972
H           7.38598         3.85759        -2.04669
H           5.91597         3.45222        -2.92759
H           7.21595         3.82926        -3.83924
H           9.29758         2.13406        -1.76171
H           9.15963        -0.31516        -3.60907
H           8.88959        -0.34076        -1.85669
H          10.46128         0.02964        -2.45628
H           9.60969         1.96310        -4.81481
H           9.72645         4.40086        -2.98023
H           8.78856         4.19106        -4.49138
H          10.45211         4.39249        -4.59700
H          11.67623         1.13275        -3.62073
H          11.69934         2.63135        -2.66961
H          11.80585         2.45196        -5.50640

