%chk=CNqCrCCqCdOrCSCCPdO.chk
%NProcShared=20
# opt freq b3lyp/6-31g(2df,p)

Title Card Required 

0  1
C           0.87934         0.03280        -0.10637
N           2.34014        -0.04980        -0.09222
C           2.70587        -1.45101        -0.27222
C           2.97130         0.82772        -1.10375
C           4.52912         0.85700        -1.12046
C           5.20891        -0.43827        -1.58185
O           5.57295        -1.36892        -0.85659
C           5.03811         1.94155        -2.10581
S           6.87662         1.98852        -1.98934
C           7.34449         3.11205        -3.33521
C           8.87663         3.14721        -3.39701
P           9.45049         4.38434        -4.69942
O          10.99691         4.16048        -4.46579
H           0.46395        -0.64253         0.65404
H           0.46457        -0.26009        -1.07696
H           0.53097         1.03693         0.14993
H           2.13041        -2.13412         0.35852
H           3.71408        -1.58842         0.09091
H           2.60201        -1.76610        -1.31767
H           2.63408         1.85310        -0.88256
H           2.58850         0.59120        -2.10459
H           4.87578         1.10106        -0.10718
H           5.41518        -0.51904        -2.65901
H           4.63598         2.92722        -1.85321
H           4.72492         1.69181        -3.12878
H           6.93920         4.10228        -3.10779
H           6.92721         2.76687        -4.28840
H           9.27755         2.15484        -3.64425
H           9.29558         3.43611        -2.42421

