%chk=COC1qCdOrCC2CCCC1CC2qCrO.chk
%NProcShared=20
# opt freq b3lyp/6-31g(2df,p)

Title Card Required 

0  1
C           0.86025         0.04050        -0.10854
O           2.26280        -0.09063         0.00377
C           2.78517        -0.97828         1.00654
C           3.14605        -2.27574         0.27316
O           3.58830        -3.29076         0.83883
C           1.83789        -1.33566         2.17416
C           2.11171        -0.51821         3.45758
C           1.95090         0.99231         3.20498
C           3.24006         1.71883         2.80510
C           3.97313         1.22999         1.58296
C           4.09987        -0.31809         1.52606
C           4.54248        -0.97149         2.88239
C           3.50760        -0.85052         4.04725
C           3.92932         0.06851         5.23428
O           3.42439        -2.13356         4.69986
H           0.63633         0.78346        -0.87658
H           0.41474         0.42274         0.80960
H           0.41900        -0.91981        -0.37521
H           2.99054        -2.28435        -0.81374
H           1.92563        -2.40254         2.41674
H           0.78279        -1.23942         1.90789
H           1.33689        -0.84569         4.16608
H           1.56562         1.42954         4.13463
H           1.17152         1.19826         2.46939
H           4.03373         1.56312         3.50692
H           3.10924         2.80097         2.86809
H           4.99019         1.64493         1.63786
H           3.53290         1.67935         0.68829
H           4.89793        -0.50832         0.79182
H           5.52179        -0.58980         3.18818
H           4.71656        -2.03905         2.68207
H           4.01617         1.14837         5.11590
H           4.91139        -0.22976         5.60897
H           3.19198        -0.00456         6.03846
H           3.18439        -2.81857         4.05585

