%chk=CtCCCNC1CCCqCCCrN1CC.chk
%NProcShared=20
# opt freq b3lyp/6-31g(2df,p)

Title Card Required 

0  1
C           0.91512        -0.05135        -0.01259
C           2.21898        -0.05135        -0.01259
C           3.73898        -0.05135        -0.01259
C           4.22634         0.09454        -1.46472
N           5.67411        -0.06573        -1.54520
C           6.21771         0.28123        -2.83352
C           7.47337        -0.52248        -3.13160
C           8.02819         0.21095        -4.32813
C           7.61437         1.67586        -4.10868
C           6.99098         2.27956        -5.38272
C           7.97821         2.28429        -6.56129
C           7.34321         2.84004        -7.82504
N           6.64979         1.68640        -2.95679
C           7.33311         2.24391        -1.76268
C           6.45758         2.49101        -0.53288
H          -0.15059        -0.04923        -0.01167
H           4.08740        -0.99812         0.41613
H           4.10171         0.76576         0.61865
H           3.91790         1.07922        -1.84232
H           3.74015        -0.65962        -2.09754
H           5.95432        -1.00118        -1.25695
H           5.48451         0.07422        -3.62880
H           7.25509        -1.57090        -3.35688
H           8.18933        -0.49508        -2.30124
H           7.57174        -0.20606        -5.23411
H           9.11306         0.09423        -4.40717
H           8.51168         2.26537        -3.87461
H           6.67039         3.30965        -5.18235
H           6.09244         1.71625        -5.66534
H           8.33195         1.26996        -6.77666
H           8.86151         2.88092        -6.30508
H           6.47385         2.24318        -8.11893
H           8.06192         2.81840        -8.65081
H           7.02101         3.87508        -7.67930
H           7.72763         3.23258        -2.03342
H           8.19816         1.63520        -1.47317
H           5.55474         3.05203        -0.79199
H           7.01370         3.05388         0.22203
H           6.16748         1.57227        -0.02440

