%chk=NC1CCCCCNCC1CdO.chk
%NProcShared=20
# opt freq b3lyp/6-31g(2df,p)

Title Card Required 

0  1
N           1.17787        -0.06291        -0.32340
C           2.60636         0.05630         0.01808
C           2.99128         1.53811         0.16220
C           2.56562         2.26971         1.44876
C           1.06527         2.30027         1.73564
C           0.65225         1.64445         3.06580
C           1.05286         0.19710         3.38683
N           0.73020        -0.83113         2.43171
C           1.83135        -1.61379         1.86611
C           3.02218        -0.87329         1.19623
C           4.01223        -0.28964         2.21055
O           4.98740         0.38888         1.93095
H           0.88255         0.68494        -0.94908
H           0.68202         0.12996         0.54175
H           3.10792        -0.32702        -0.88057
H           2.60010         2.09551        -0.69937
H           4.08156         1.60988         0.05307
H           2.93129         3.30085         1.35741
H           3.09013         1.90058         2.33041
H           0.46183         1.93181         0.90860
H           0.76896         3.35569         1.78687
H          -0.43256         1.74277         3.17470
H           1.10151         2.25354         3.86163
H           0.58423        -0.09029         4.33591
H           2.10565         0.19639         3.63074
H          -0.08150        -0.68253         1.83908
H           1.39753        -2.28325         1.10684
H           2.20598        -2.28950         2.64308
H           3.63229        -1.67605         0.75557
H           3.83514        -0.53809         3.27215

