%chk=OCCCN1CdCCdCCdCNNdCC1.chk
%NProcShared=20
# opt freq b3lyp/6-31g(2df,p)

Title Card Required 

0  1
O           1.06248        -0.07110        -0.04651
C           2.51947        -0.05755        -0.06858
C           3.09907         0.82898        -1.39232
C           4.93738         1.18546        -2.02348
N           5.97732         1.98334        -3.73080
C           6.64973         1.68489        -2.51481
C           7.38743         2.26946        -3.30495
C           8.61037         2.40277        -3.65843
C           9.04026         3.13832        -4.61433
C          10.33809         3.19012        -4.55560
C          10.14536         4.43440        -5.06446
N          11.50807         4.03443        -5.65462
N          10.70817         4.29183        -6.94720
C           9.25281         3.29356        -6.64977
C           7.21964         2.82066        -5.30596
H           0.74056        -0.59044         0.71934
H           2.83525        -1.09978        -0.11273
H           2.83548         0.37109         0.88379
H           2.61464         1.77136        -1.16893
H           2.60911         0.28565        -2.17564
H           4.98381        -0.14305        -1.50419
H           4.99047         1.29737        -0.54841
H           7.22675         1.08841        -1.85280
H           7.04615         3.10875        -3.79978
H           9.21792         1.95012        -3.03731
H           8.32883         4.01313        -5.63466
H          11.28990         2.74724        -4.34682
H           9.45266         5.00402        -6.31508
H          12.60893         3.85522        -5.69941
H          10.70841         4.01388        -6.99118
H           6.01760         2.43544        -5.24458
H           6.06383         3.56761        -4.75137

