%chk=[C]1dCCdCCdCNdCCdNNNCCC1.chk
%NProcShared=20
# opt freq b3lyp/6-31g(2df,p)

Title Card Required 

0  2
C           4.60983         1.41495        -0.32627
C           2.98397         0.50722        -0.69696
C           3.64749         1.40712        -1.46213
C           5.20418         1.18102        -2.03025
C           5.20450         2.53837        -1.85796
C           6.58890         2.16627        -2.34188
N           6.97346         3.37439        -2.41798
C           8.03738         2.88599        -2.60662
C           8.89313         4.55963        -3.13744
N           8.99223         3.46959        -3.67718
N          10.27980         4.71195        -3.82965
N          11.47324         4.36071        -4.31437
C          10.99068         4.98756        -3.07788
C           9.10966         3.56718        -1.67872
C           6.89174         2.38731        -0.70251
H           2.82743        -0.56541         0.30542
H           2.56150         1.81735        -1.39660
H           5.72464         0.27030        -0.81860
H           4.47851         3.00725        -2.27786
H           7.36715         1.14483        -1.31727
H           8.97891         2.07407        -1.79131
H           8.60384         5.12542        -3.83515
H          10.65006         5.85228        -4.40621
H          12.82364         4.23951        -4.22145
H          12.16140         6.29422        -3.78162
H          12.08666         5.62370        -4.50264
H          10.75623         4.20761        -2.12122
H          10.74601         3.54865        -2.55409
H           5.24347         1.48709        -0.09786
H           5.23430         1.29290        -0.44098

