%chk=[N][C]CdCqOrO[CH][O].chk
%NProcShared=20
# opt freq b3lyp/6-31g(2df,p)

Title Card Required 

0  1
N           1.16919        -0.40106        -0.47032
C           2.27893         0.13750         0.30332
C           3.09199         0.77628         1.26301
C           4.42879         0.86997         1.39045
O           5.34602         0.30989         0.52831
O           4.83091         1.54300         2.54473
C           6.10919         2.00576         2.75598
O           6.60920         2.46743         3.81127
H           2.52458         1.27440         2.04090
H           4.87012        -0.18854        -0.14890
H           6.64840         2.06033         1.81756

