%chk=C1dCNdCNdCC2dNCdNCdCCC2dC1.chk
%NProcShared=20
# opt freq b3lyp/6-31g(2df,p)

Title Card Required 

0  1
C           2.54697         1.17512        -0.86577
C           3.76459         0.74521        -0.32691
N           5.12876         1.95704        -0.64081
C           5.36280         0.84716        -0.60139
N           5.72436         1.87584        -1.40609
C           6.83876         2.09213        -1.55636
C           7.46733         3.07671        -2.15761
N           8.54261         2.66227        -2.09716
C           8.89012         3.86121        -2.19372
N          10.54527         3.66951        -2.63190
C          10.18383         4.74753        -3.05357
C          11.32716         4.64309        -3.68798
C           8.95050         4.04734        -3.65970
C           6.49533         3.14124        -2.82686
C           4.29794         2.24415        -2.02889
H           0.73775         0.83583        -0.56804
H           3.02974        -0.43630         0.46653
H           4.99797         0.14714        -0.05667
H           7.07022         1.35079        -0.94572
H           8.20978         5.03811        -3.48574
H          10.42219         5.99839        -4.49132
H          13.01799         4.43938        -3.37063
H          10.64718         4.69012        -4.44967
H          10.74561         5.19493        -3.96041
H           2.83525         1.27624        -1.10411

