%chk=C[C]qNCdOrN1CdNNdCNdC1[N]CNdO.chk
%NProcShared=20
# opt freq b3lyp/6-31g(2df,p)

Title Card Required 

0  1
C           1.10948         0.08114         0.07316
C           2.61311        -0.10321         0.00994
N           3.19724        -0.78378         1.07788
C           2.78016        -0.91190         2.36667
O           3.17502        -1.77845         3.14011
N           3.08595        -0.37624        -1.31300
C           3.47441         0.69643        -2.09783
N           3.90129         0.84538        -3.30666
N           4.07329        -0.21145        -4.18049
C           3.85209        -1.47078        -3.95328
N           3.41380        -2.19368        -2.89639
C           3.08496        -1.70554        -1.75184
N           2.67711        -2.55355        -0.80980
C           2.56999        -3.96113        -1.05136
N           2.05899        -4.58595         0.21580
O           1.94482        -5.81335         0.12275
H           0.74033         0.33066         1.06841
H           0.62138        -0.85581        -0.22738
H           0.77687         0.85478        -0.62404
H           3.68818        -1.61530         0.73286
H           2.08427        -0.13017         2.69492
H           3.40273         1.64741        -1.53995
H           4.06926        -2.11950        -4.81942
H           3.53530        -4.43101        -1.25594
H           1.84429        -4.21479        -1.82867

