%chk=CC1CdCCdCCdCCdCqNrNCdCCdCCdCCqCdOrC1.chk
%NProcShared=20
# opt freq b3lyp/6-31g(2df,p)

Title Card Required 

0  1
C           3.68936        -1.64285         0.69371
C           6.17476        -3.19640         1.24759
C           4.00559        -2.14660         0.72540
C           5.07462        -2.64921         0.45005
C           4.66001        -3.64293         0.22299
C           6.21896        -4.01533        -0.11059
C           6.60900        -4.95853         0.78155
C           7.74424        -5.26597         0.32016
C           8.45799        -6.65959         0.88317
C           9.81658        -6.72337         1.04047
N          10.77075        -5.60880         0.91156
N          10.10032        -8.07246         1.14534
C          11.39788        -8.55789         0.67902
C          11.83019        -9.58957         1.24293
C          13.27954        -9.67316         0.50989
C          13.60540       -11.16711         0.94656
C          14.75342       -10.47312         1.20689
C          13.13653        -9.51617         2.22312
C          11.19363        -7.42165         2.13497
C          13.31327        -9.49679         2.49609
O          14.88094       -10.71570         2.75787
C           8.75910        -5.24989         1.75475
H           1.90683        -1.01872        -0.15948
H           2.16338        -0.28878         0.25603
H           1.80464        -0.83686         0.85128
H           4.93375        -1.56746         0.48499
H           2.31519        -2.35407         0.41963
H           5.47471        -0.80185         0.14856
H           3.98862        -4.02855         0.72112
H           6.99621        -2.61844         0.16789
H           5.92305        -5.59835         0.94671
H           8.67271        -4.20846         0.40994
H           7.76905        -7.26839         1.19658
H          10.45770        -4.65475         0.77765
H          11.75541        -5.75152         0.95361
H           9.61777        -8.81278         1.44195
H          12.44115        -7.46493         0.92994
H          11.48568       -10.41668         1.69710
H          14.40126        -8.91902         1.18804
H          13.16211       -12.03541         1.82411
H          16.37689       -10.56461         1.62323
H          13.93968       -11.40673         2.21645
H          12.93688        -8.37745         2.26217
H          14.82126       -11.05993         2.58287
H           7.92074        -3.65115         1.57065
H           7.70592        -3.79416         1.81445

