%chk=CC1CCdC1CdCdNC1d[SH]CC1.chk
%NProcShared=20
# opt freq b3lyp/6-31g(2df,p)

Title Card Required 

0  1
C           0.95200         0.01697         0.11835
C           2.47214        -0.02755         0.15601
C           3.19861         1.01370        -0.73241
C           3.71580        -0.16824        -1.52531
C           3.11270        -1.07997        -0.73814
C           3.06619        -2.56996        -0.72898
C           2.44053        -3.31521         0.14071
N           1.91891        -3.93741         0.98797
C           0.94431        -4.79820         0.64084
S          -0.53679        -5.10261         1.49833
C          -0.48651        -6.41752         0.18944
C           0.92157        -5.98094        -0.28213
H           0.57679         0.84565         0.72648
H           0.52779        -0.90977         0.51792
H           0.57511         0.14775        -0.90214
H           2.83609        -0.02480         1.19272
H           3.95696         1.60725        -0.20788
H           2.54514         1.70792        -1.27370
H           4.35688        -0.22131        -2.40056
H           3.64054        -3.06483        -1.50410
H          -1.32304        -4.22686         0.91405
H          -1.27306        -6.30228        -0.56296
H          -0.53696        -7.43444         0.59195
H           0.97133        -5.71646        -1.34206
H           1.70604        -6.71343        -0.06320

