%chk=Cc1cccccccc2cccc-2c1.chk
%NProcShared=20
# opt freq b3lyp/6-31g(2df,p)

Title Card Required 

0  1
C           2.47362         0.02168         0.01752
C           4.78651         0.14481        -0.11560
C           3.33284         0.83365        -0.90955
C           4.43993         1.21124        -1.34513
C           5.29383         1.85910        -2.08841
C           6.57651         1.89919        -2.13664
C           7.21553         2.64528        -2.98045
C           8.39066         2.85188        -3.21761
C           9.45164         3.28119        -3.70808
C          10.05441         2.41765        -2.71706
C          11.10179         3.49837        -3.95738
C          11.97980         2.87824        -3.23373
C          10.61409         1.80704        -2.00903
C           8.85746         1.26831        -1.38431
C           6.75465         0.47582        -0.48980
H           1.13774         0.60598        -0.65279
H           1.16092         0.31433         0.86810
H           1.16152        -0.86211        -0.16045
H           2.66655         1.43466        -1.60290
H           5.37815         1.01787        -1.12862
H           4.71215         2.37692        -2.67848
H           7.26439         1.42964        -1.60735
H           6.76729         3.19829        -3.61662
H           8.54903         2.20966        -2.54920
H           9.16591         3.95857        -4.48985
H          11.38722         4.44267        -5.04992
H          13.21178         3.55318        -3.99980
H          12.12060         2.02330        -2.25633
H           5.81561        -0.26201         0.34162

