%chk=CC1CdCNdCSCqCtNrdCSCdCCdC1O.chk
%NProcShared=20
# opt freq b3lyp/6-31g(2df,p)

Title Card Required 

0  1
C           2.60336        -0.80600        -0.39176
C           4.59055        -1.61782        -1.10898
C           3.27322        -0.80968        -1.72008
C           4.48980        -0.44083        -2.04299
N           4.74145        -1.21924        -3.13284
C           6.00101        -1.09086        -3.34012
S           6.60483        -2.13741        -4.66950
C           8.50702        -2.23114        -4.45140
C           9.26702        -1.65937        -3.26570
N           9.89751        -1.18504        -2.28206
C           8.97486        -2.15734        -5.75750
S          10.94311        -1.67738        -5.60051
C          10.65668        -3.31242        -6.05735
C           9.98246        -3.52960        -4.37513
C           8.25959        -3.28478        -2.89043
C           6.60702        -2.54916        -1.97465
O           6.10831        -2.13260        -0.26296
H           1.45540         0.15443        -0.83008
H           1.65764        -0.02000         0.54321
H           1.21948        -1.21997        -0.16467
H           4.14640        -0.32294        -0.31258
H           2.29841        -1.15214        -2.15182
H           5.34806         0.01780        -0.96356
H           6.69883        -0.63217        -2.45556
H           8.61707        -3.09534        -6.39858
H          10.85213        -3.71335        -7.48678
H          11.46116        -3.57933        -5.06845
H           9.15864        -3.79098        -4.12973
H           5.10165        -1.67076         0.42018

