%chk=CC1CC2CNdCdCNdNCdC3CdCqNOC3N2rC1dN.chk
%NProcShared=20
# opt freq b3lyp/6-31g(2df,p)

Title Card Required 

0  1
C           0.80083        -0.38761        -0.02042
C           2.29409        -0.35081        -0.03004
C           2.71587         0.97765         0.53078
C           1.60446         2.27377         0.22618
C           1.32578         3.08561         1.43651
N           1.18029         2.11058         2.56553
C           1.75745         2.45406         3.46845
C           2.67572         3.29400         3.93170
N           3.38467         3.92113         2.81010
N           3.85382         3.06671         1.85161
C           4.28725         3.06157         0.25483
C           3.70025         2.65671        -1.10531
C           3.73682         1.45155        -2.33972
C           2.65100         0.61583        -2.38482
N           1.44927         1.33939        -2.50958
O           1.79877         2.82636        -2.85678
C           2.58549         3.41513        -1.68617
N           1.54589         3.38012        -0.76697
C           2.92991        -0.45918        -1.40404
N           3.89087        -1.31172        -1.62942
H           0.45070        -0.06871         0.96911
H           0.43764        -1.35564        -0.31159
H           0.34867         0.28473        -0.75091
H           2.74772        -1.10468         0.62522
H           3.76025         0.97266         0.17097
H           2.97811         0.91862         1.59114
H           0.64689         1.84258         0.03878
H           0.46330         3.74188         1.39464
H           2.05474         3.92516         1.33821
H           2.74819         3.55173         5.00072
H           5.15118         2.43241         0.38627
H           3.46724         1.87247        -3.39273
H           0.77760         0.85225        -3.13990
H           3.22203         4.31843        -1.86529
H           0.90114         2.97341        -1.45702
H           4.27078        -1.17601        -2.58007

