%chk=CC1CdC2CdCCqdCCdCCdC3CdC3C1rCdCCdN2.chk
%NProcShared=20
# opt freq b3lyp/6-31g(2df,p)

Title Card Required 

0  1
C           1.26856        -0.13023         0.27194
C           2.95294         0.12992         0.91433
C           4.50531        -0.82152         1.42070
C           5.78176        -0.52571         2.22570
C           5.03172        -0.23293         3.34602
C           5.71834         0.61369         4.23097
C           6.50908         0.20493         5.27161
C           5.81529        -0.26256         6.36470
C           4.39323        -0.40285         6.20704
C           3.29977        -0.44148         6.94489
C           2.10505        -0.40768         6.04316
C           1.87958         0.60641         5.13736
C           0.56563         0.74571         4.58061
C           1.48066         0.36541         3.66936
C           2.30408         0.96136         2.25383
C           8.02081         0.52536         4.98980
C           8.55681        -0.54038         5.52604
C           8.33351        -1.09785         3.89749
N           7.39725        -1.01119         2.71431
H           0.75655        -1.04456         0.61124
H           1.14574        -0.06679        -0.83549
H           0.60707         0.70707         0.56426
H           3.02127        -0.61400         0.08004
H           3.73458        -1.36476         2.06506
H           3.98981        -0.08106         3.40157
H           6.53582         0.79562         3.61867
H           6.21356        -0.38408         7.35124
H           4.03687        -0.38809         5.20492
H           3.43538        -0.45565         8.01676
H           1.91698        -1.40073         5.60611
H          -0.18639         0.15041         5.15290
H           3.21844         1.50709         2.51176
H           1.72027         1.80254         1.82235
H           8.54042         0.78681         3.90022
H           8.14816        -0.59357         6.56461
H           9.58553        -0.98435         3.79035

