%chk=CC1dCC2dCdCCqdCCNNrCdCCdCqNrCdC21.chk
%NProcShared=20
# opt freq b3lyp/6-31g(2df,p)

Title Card Required 

0  1
C           1.51639        -0.22669        -0.06721
C           3.53902        -0.65460        -0.24525
C           3.87413         0.67911        -0.12000
C           5.12704         0.09100         0.06190
C           6.19188         0.65255         0.04141
C           7.40223         0.42271        -0.11260
C           7.96487        -0.06590        -1.36128
C           7.33924        -0.84317        -2.39485
C           5.88037        -1.13646        -2.57954
N           5.39587        -2.20349        -3.43362
N           3.91158        -2.23586        -3.26957
C           9.39092         0.01982        -1.30137
C          10.00117        -0.62378        -2.30537
C          10.67109        -1.47969        -1.31244
C           9.32328        -2.28162        -1.14911
N          11.02898        -2.61775        -2.05749
C           7.20179        -2.09045        -0.54365
C           5.46493        -1.43894        -0.11692
H           0.94105         0.95525        -0.07135
H           0.82729        -0.54259         0.80630
H           0.80672        -0.53098        -0.93524
H           3.43875         1.82415        -0.05668
H           7.87168         0.72683         0.77828
H           7.87081        -1.70504        -2.89067
H           5.41070        -0.18740        -2.40008
H           5.30596        -1.63000        -1.85423
H           5.77101        -3.10997        -3.10057
H           3.56864        -1.26801        -3.30156
H           3.61579        -2.59360        -2.34488
H           9.96749         0.06832        -0.30433
H           9.64387        -1.24338        -3.23271
H          11.70972        -0.66101        -1.26924
H          11.94396        -2.00964        -2.88887
H          12.32452        -2.21364        -1.75609
H           6.27040        -2.87871        -0.57421

