%chk=CC1dNNdCCdCCdCCdCCdCCdNN1C.chk
%NProcShared=20
# opt freq b3lyp/6-31g(2df,p)

Title Card Required 

0  1
C           2.52980         0.22469        -0.28452
C           5.05520         0.54872        -0.58022
N           3.40921         0.97590        -0.97011
N           4.63991         1.14209        -1.12178
C           5.34292         1.89500        -1.80892
C           6.96582         1.99513        -1.90033
C           7.43933         2.77247        -2.60974
C           8.63858         2.72536        -2.56670
C           9.23397         3.76141        -3.50845
C           9.83185         3.11261        -2.92208
C          10.79595         4.01677        -3.74540
C          12.55511         3.81885        -3.56512
C          13.22161         4.57613        -4.25563
C          11.86233         3.05816        -2.87021
N          10.00559         1.96290        -1.87077
N           7.39618         0.95483        -0.95080
C           5.42723        -0.21886         0.12030
H           0.91732         0.73841        -0.75337
H           1.03267         0.25112         0.70659
H           1.03267        -0.75989        -0.40118
H           4.69432         2.42772        -2.29511
H           8.48101         1.08463        -1.06941
H           6.89545         3.31283        -3.10290
H           8.97108         1.65742        -1.59214
H           8.94372         4.31899        -4.02326
H          10.96021         2.55304        -2.40949
H          11.25364         4.93179        -4.58040
H          13.95278         3.19934        -2.99932
H          13.48739         5.77941        -5.35400
H          13.72719         3.93632        -3.67189
H           4.30227        -1.30725         1.11360
H           3.82453        -1.16086         0.42133
H           3.82453        -0.60452         1.03092

