%chk=CC1dC2SSqdNrC2dCNNdCCdCCdC1.chk
%NProcShared=20
# opt freq b3lyp/6-31g(2df,p)

Title Card Required 

0  1
C           1.92280        -0.71193        -0.40354
C           3.68067        -0.88347        -0.24509
C           3.89558         0.21194         0.71275
S           2.73518         1.04480         1.87917
S           4.25508         2.23111         2.24834
N           4.01473         3.28686         1.19710
C           4.98405         0.98588         1.27055
C           6.24070         0.58524         1.28765
N           6.50988        -0.60115         0.79156
N           7.71774        -1.06903         0.52535
C           7.58247        -2.28761         0.39245
C           8.50625        -3.04293        -0.39551
C           7.54793        -3.64869        -1.14435
C           6.15477        -2.70281        -1.61033
C           4.89605        -1.81797        -1.31161
H           1.49864        -0.01818         0.36444
H           1.28916        -1.53729        -0.06233
H           1.52840        -0.07266        -1.21558
H           3.79360         4.17562         1.68291
H           7.02565         1.09123         1.80276
H           5.68685        -1.13949         0.51056
H           6.61348        -2.85765         0.56850
H           9.57235        -2.89060        -0.34884
H           7.83938        -4.55798        -1.70660
H           6.79327        -2.54544        -2.56679
H           4.35457        -1.73347        -2.26490

