%chk=CC1dNNdCCqd[SH][O]rCdC2CdC21.chk
%NProcShared=20
# opt freq b3lyp/6-31g(2df,p)

Title Card Required 

0  2
C           2.30958         0.36905        -0.12447
C           4.16701         0.95796        -0.11962
N           3.56913         1.71459         0.70246
N           4.21756         1.30100         1.75402
C           4.88487         2.29718         2.09353
C           6.36411         1.65607         2.26083
S           7.44004         0.16102         0.86498
O           6.50593        -0.73833        -0.00765
C           7.12043         2.88738         2.38991
C           6.95156         2.41055         1.13145
C           7.13680         3.00642        -0.01200
C           5.88496         2.14872        -0.21315
H           1.53705         1.05432         0.43985
H           1.79008        -0.55975         0.50770
H           1.63259         0.20122        -1.02097
H           4.65212         3.41844         1.85000
H           8.47031        -0.19174         1.56099
H           6.89846         3.97577         2.36665
H           8.20326         3.39072         0.69604

