%chk=CC1dCCdCCdCCdC2CdCCdC1SqNCNrdCC2.chk
%NProcShared=20
# opt freq b3lyp/6-31g(2df,p)

Title Card Required 

0  1
C           3.13623        -0.43745        -1.87183
C           4.84224        -0.32866        -3.29105
C           4.03143         0.35716        -2.14476
C           4.94713         0.60607        -1.09442
C           5.70015         1.25692        -1.94355
C           6.99196         0.68894        -2.00427
C           7.66975         1.29748        -2.91452
C           9.05095         1.19396        -3.11792
C           9.66056         1.83902        -4.17032
C          11.06888         1.49909        -4.28861
C          10.54180         0.86197        -5.36707
C           8.66165        -0.04076        -4.89165
C           6.80774        -0.11201        -4.43455
S           6.33172         0.92633        -6.44563
N           4.83430         1.59323        -6.14416
C           3.88109         1.87866        -7.26335
N           2.51017         1.76807        -6.77250
C           7.57525         1.82287        -5.78886
C           8.94267         1.90535        -5.97208
H           2.36058        -0.15774        -0.51308
H           1.74743        -0.81371        -1.37658
H           1.97098         0.52063        -1.32554
H           2.86088         0.99550        -2.62279
H           5.22205        -0.02680        -0.25464
H           5.16398         1.56709        -3.10367
H           7.51412         0.20703        -1.26972
H           6.81973         1.51135        -3.56449
H           9.66823         0.57940        -2.47869
H          11.82591         0.94214        -3.67440
H          11.25806         1.61307        -6.50432
H          10.10378         0.15971        -5.61154
H           4.65300         2.28218        -5.43421
H           4.00933         1.19055        -8.11039
H           4.01638         2.89746        -7.65596
H           2.34888         0.80901        -6.46535
H           1.84159         1.94436        -7.53155
H           7.16836         2.06134        -4.90560
H           9.31347         2.79295        -6.33442
H           9.18396         0.98754        -6.78312

