%chk=CC1dCC2dCqCCNNCdCqOrCdNNdCCdC2r[N]1.chk
%NProcShared=20
# opt freq b3lyp/6-31g(2df,p)

Title Card Required 

0  2
C           1.43105         0.01263         0.03517
C           3.53381         0.19937         0.03822
C           5.49064         0.87015         0.04052
C           7.66786         0.46873        -0.01859
C           5.81255        -0.49075         0.03458
C           5.89961        -1.91397         0.05144
C           7.17406        -1.40781         0.07332
N           8.23742        -2.25094         0.08139
N           9.28000        -1.62143         0.09511
C          10.46249        -2.10307         0.08429
C          11.45913        -1.32329         0.28232
O          11.41018         0.74111         0.69682
C          12.86574        -2.26511         0.11406
N          14.07821        -2.09014         0.10893
N          15.26986        -2.03185         0.09527
C          14.46283        -0.61912         0.03036
C          12.31391        -0.01094        -0.35420
C          10.06444         0.17375        -0.12770
N           4.07094        -0.94300         0.03608
H           0.74696         0.95495         0.03565
H           0.77206        -0.57436         0.90753
H           0.77227        -0.57197        -0.84045
H           4.09267         1.63153         0.03532
H           5.75667        -2.43655        -0.85947
H           5.74504        -2.43095         0.96202
H           7.18359        -0.73125         1.15845
H           7.19341        -0.75176        -1.05514
H           8.21457        -2.60181        -0.82540
H           8.95281        -0.69742         0.09820
H          10.73486        -3.09283         0.07786
H          11.26297         1.55140        -0.00100
H          13.09151        -3.26019         0.09593
H          16.09977        -0.24864         0.08779
H          13.86379        -0.24482         0.10446
H           9.06500         1.08392         0.02495

