%chk=CC1dCCdCqNNCCqdOrOOrNdCdCCdCCdN1.chk
%NProcShared=20
# opt freq b3lyp/6-31g(2df,p)

Title Card Required 

0  1
C           2.69602         0.33053        -0.56699
C           4.55335         0.28675        -1.70780
C           3.72287        -0.73679        -1.16774
C           4.82663        -1.29761        -0.68163
C           5.31313        -2.00557        -1.78658
N           4.56250        -1.96946        -3.09995
N           3.19894        -1.85789        -3.25461
C           2.65209        -2.56297        -4.35198
C           1.11932        -2.51042        -4.24757
O           0.49660        -1.95900        -3.34355
O           0.57294        -3.15509        -5.34429
O          -0.89778        -3.09411        -5.24859
N           6.62057        -2.38362        -1.84630
C           6.97081        -2.60162        -2.93895
C           7.83028        -2.82848        -3.85660
C           9.24139        -2.59557        -3.37600
C           9.00368        -1.67462        -4.28241
C           7.86874        -0.56337        -3.04934
N           6.34852         0.03869        -2.24930
H           1.53126        -0.32641        -1.01388
H           1.68434         1.06545        -0.28917
H           1.96194        -0.35172         0.44487
H           2.72913        -1.18447        -1.58082
H           4.94791        -0.51863         0.31596
H           5.10708        -2.28130        -3.88160
H           2.87646        -0.87875        -3.25874
H           3.02261        -3.57942        -4.27939
H           3.01955        -2.02380        -5.21685
H          -1.10536        -3.58187        -6.06977
H           7.52214        -3.10691        -4.88669
H           9.92844        -1.91040        -2.69501
H           9.44988        -2.64799        -5.21596
H           9.23047        -0.34697        -3.65310

