%chk=CC1dCCdCCdCCdC1CCqCrNNNN.chk
%NProcShared=20
# opt freq b3lyp/6-31g(2df,p)

Title Card Required 

0  1
C           0.91146         0.00646         0.39913
C           2.39776        -0.01874         0.01817
C           3.15340        -0.98015         0.58165
C           4.60116        -0.94434         0.65409
C           5.26384         0.00420         1.32851
C           4.61398         1.12719         2.00043
C           3.92360         2.07458         1.35432
C           3.73686         2.06514        -0.08623
C           3.05098         1.10189        -0.74076
C           3.15265         1.07988        -2.28924
C           2.34242        -0.03247        -2.99565
C           0.87545         0.22734        -2.68370
N           2.45384        -0.06514        -4.46671
N           1.66372        -1.17285        -4.94055
N           1.59810        -1.15518        -6.33180
N           0.79701        -2.25012        -6.73799
H           0.68447        -0.71571         1.18918
H           0.20271        -0.30848        -0.37188
H           0.60968         1.00206         0.74177
H           2.68377        -1.77841         1.15097
H           5.13203        -1.74302         0.14308
H           6.35068        -0.00895         1.36801
H           4.68227         1.14603         3.08630
H           3.43414         2.88126         1.89584
H           4.28104         2.83737        -0.62952
H           4.21153         0.99722        -2.57901
H           2.80998         2.05435        -2.66877
H           2.69397        -0.99543        -2.59550
H           0.42085         1.02030        -3.27791
H           0.81292         0.67038        -1.71647
H           0.27334        -0.68690        -2.69896
H           3.42978        -0.18326        -4.73709
H           0.69965        -1.09269        -4.59845
H           2.53933        -1.19161        -6.73227
H          -0.15709        -2.13982        -6.38941
H           1.14412        -3.11134        -6.31195

