%chk=CC1dCCdCCdC2NdNCdCCC2dN1.chk
%NProcShared=20
# opt freq b3lyp/6-31g(2df,p)

Title Card Required 

0  1
C           1.03070         0.07541        -0.00091
C           2.54357         0.15777        -0.01215
C           3.22321        -0.90071         0.50234
C           4.65670        -0.90419         0.72679
C           5.27940        -0.03362         1.54750
C           4.49370         0.78582         2.48646
C           3.40267         1.43159         2.13193
N           2.27493         1.69445         2.87258
N           2.19453         2.73417         3.53207
C           2.51186         3.94702         2.96087
C           3.71877         4.16879         2.39221
C           4.09615         3.50034         1.00180
C           3.48361         2.07078         0.80552
N           3.12102         1.42952        -0.28725
H           0.66934        -0.77382         0.59763
H           0.62712        -0.04380        -1.00903
H           0.60290         0.97210         0.45706
H           2.68514        -1.75657         0.91754
H           5.20537        -1.66034         0.16876
H           6.36116        -0.03680         1.60656
H           4.68577         0.61679         3.54215
H           2.07281         4.70635         3.61182
H           4.50813         4.04751         3.16114
H           5.19587         3.42596         0.95075
H           3.78353         4.18609         0.21150

