%chk=CC1d[SH]CdCCdCCdC1CdCCdCS.chk
%NProcShared=20
# opt freq b3lyp/6-31g(2df,p)

Title Card Required 

0  1
C           0.79751         0.05195        -0.06936
C           2.29899        -0.01137        -0.07970
S           2.97242        -1.37779         0.87886
C           4.71357        -1.08221         0.68821
C           5.29184        -0.06039         1.33898
C           4.57967         1.01148         2.00834
C           3.87350         1.93842         1.33578
C           3.75250         1.93568        -0.11229
C           3.08643         1.00639        -0.83060
C           3.09968         1.00184        -2.28912
C           2.49177         0.07424        -3.05275
C           2.48084         0.07624        -4.49999
C           1.80815        -0.85198        -5.20176
S           1.74692        -0.89620        -6.92898
H           0.38611        -0.77458         0.51827
H           0.40393        -0.03309        -1.08327
H           0.46785         0.99221         0.37741
H           2.76831        -2.35716         0.02952
H           5.33245        -1.77592         0.12830
H           6.37341         0.04399         1.30844
H           4.62870         1.03605         3.09297
H           3.36026         2.73269         1.87042
H           4.31191         2.72678        -0.60849
H           3.65903         1.80169        -2.77018
H           1.95625        -0.74288        -2.57700
H           3.03049         0.86520        -5.00451
H           1.25345        -1.63316        -4.68981
H           2.50201         0.16889        -7.23265

