%chk=CC1qCrCd[SH]C2CdCdCdCNdCC2dC1.chk
%NProcShared=20
# opt freq b3lyp/6-31g(2df,p)

Title Card Required 

0  1
C           1.10184        -0.02407         0.01514
C           2.64370        -0.08788         0.08439
C           3.27582        -0.04970        -1.32864
C           3.01091         1.27126         0.55983
S           3.61427         1.61842         2.14037
C           3.69570        -0.02090         2.97244
C           5.00762         0.20453         3.64115
C           5.45476        -0.52417         4.59799
C           5.58890        -1.53716         5.17760
C           5.37782        -2.79967         5.21400
N           4.73035        -3.32601         4.10187
C           4.14867        -2.77695         3.03822
C           3.66007        -1.33943         2.21408
C           3.15520        -1.31496         0.93066
H           0.73250         0.91878        -0.42316
H           0.67673        -0.06260         1.02616
H           0.67811        -0.84295        -0.57046
H           3.02676         0.87363        -1.88157
H           2.96689        -0.88835        -1.95299
H           4.37043        -0.04999        -1.24285
H           2.84380         2.14356        -0.10370
H           2.54868         2.16355         2.66728
H           2.81628        -0.00675         3.63011
H           5.70056         0.93432         3.25887
H           6.07094        -3.36539         5.86066
H           3.91937        -3.62024         2.36136
H           3.05207        -2.22943         0.33979

