%chk=CC[C]NC1dCCdCCdCN1CqdOrCOC.chk
%NProcShared=20
# opt freq b3lyp/6-31g(2df,p)

Title Card Required 

0  1
C           0.94597         0.05013        -0.01390
C           2.44124         0.11256        -0.09451
C           3.24278        -0.54629         0.92821
N           4.57881        -1.04283         1.12748
C           5.26407        -1.23580         2.31432
C           4.88608        -2.41222         2.86302
C           5.45217        -3.27589         3.84677
C           6.58934        -3.08346         4.51237
C           7.42211        -1.93585         4.40953
C           7.30126        -0.84744         3.64054
N           6.38270        -0.42908         2.67204
C           6.69807         0.85585         2.10402
O           7.70278         1.50414         2.43216
C           5.76858         1.45241         1.04267
O           6.06554         2.75636         0.55697
C           5.14082         3.11287        -0.46593
H           0.54311         0.54321        -0.90819
H           0.56656         0.57873         0.86303
H           0.57763        -0.97875        -0.00459
H           2.76776         1.15364        -0.14909
H           2.75585        -0.35900        -1.03409
H           5.20285        -0.88676         0.34827
H           4.02125        -2.89804         2.39941
H           4.92658        -4.21710         3.99176
H           6.92409        -3.85584         5.19914
H           8.28853        -1.96472         5.07048
H           8.11467        -0.13642         3.80013
H           4.76325         1.48944         1.46529
H           5.85701         0.81028         0.16589
H           5.42776         4.08152        -0.87739
H           4.13246         3.18619        -0.04703
H           5.14880         2.37164        -1.27404

