%chk=CCC1dCCdCCdC2CqSCrdCCdCNdC12.chk
%NProcShared=20
# opt freq b3lyp/6-31g(2df,p)

Title Card Required 

0  1
C           0.97016         0.01730         0.07576
C           2.50253        -0.20293         0.09774
C           3.15150        -0.97086         1.39303
C           3.45556         0.06143         2.24995
C           3.91303        -0.00393         3.62578
C           3.94313        -1.06732         4.34821
C           3.42354        -2.42968         4.05173
C           2.53760        -2.81626         3.12651
C           1.71090        -4.04749         3.02254
S           0.94408        -4.56587         1.18266
C           1.68447        -3.56654        -0.25868
C           2.15644        -5.11719         3.75528
C           2.47681        -6.16148         2.79629
C           3.59546        -5.63424         2.17360
N           3.80948        -4.06647         1.55789
C           3.27341        -2.76647         1.86968
H           0.62347         0.47198        -0.86923
H           0.60799         0.67081         0.88165
H           0.46591        -0.93204         0.17876
H           2.86792         0.86275         0.00393
H           2.85110        -0.64903        -0.82782
H           3.41581         1.13719         1.96478
H           4.21230         0.96152         4.09549
H           4.30290        -0.98298         5.38423
H           3.65000        -3.04887         4.91145
H           1.37648        -3.89810        -1.27238
H           2.73598        -3.23525        -0.42312
H           1.12439        -2.67768        -0.05744
H           3.01069        -4.96883         4.52224
H           1.91956        -6.98445         2.32739
H           4.01423        -6.14315         3.17886

