%chk=CCC1dCCdCqSrC2dCCdC1C2.chk
%NProcShared=20
# opt freq b3lyp/6-31g(2df,p)

Title Card Required 

0  1
C           0.99497         0.01642         0.00018
C           2.48941         0.14286         0.10465
C           2.70534         1.13023         1.22567
C           2.25671         1.06912         2.49339
C           2.71706         1.97541         3.57469
C           3.07781         3.29894         3.51222
S           3.54882         4.20323         4.91259
C           3.05812         4.18896         2.29902
C           3.95799         4.19217         1.26378
C           4.26651         2.79131         0.94220
C           2.94063         2.51008         0.85956
C           1.90907         3.77553         1.48641
H           0.68748        -0.57120        -0.85847
H           0.57262         1.02478        -0.06824
H           0.59891        -0.46655         0.89939
H           2.92411         0.50966        -0.83768
H           2.95443        -0.84732         0.26020
H           1.35246         0.48333         2.63546
H           2.83177         1.40444         4.49699
H           3.64104         3.21730         5.80034
H           3.61975         4.52930         0.22959
H           5.30854         3.08951         1.02615
H           1.04694         3.65999         2.18063
H           1.68865         4.74688         0.97578

