%chk=CCCCCCCC1dCCdCCdCqCrSC1dNN[C]NNC.chk
%NProcShared=20
# opt freq b3lyp/6-31g(2df,p)

Title Card Required 

0  1
C           1.04725         0.04658         0.06257
C           2.56490         0.04895         0.07344
C           3.09346         0.35395         1.47495
C           4.62103         0.35670         1.48763
C           5.20459         0.65865         2.87666
C           6.77022         0.64006         2.80657
C           7.47110         0.91902         4.14215
C           8.98471         0.92148         4.54321
C           9.04555         1.22454         5.85169
C          10.31302         1.51501         6.15007
C          11.25126         1.88959         6.99922
C          12.66671         2.10371         6.49618
C          13.09842         0.86763         6.71611
C          13.11061         1.65678         8.43925
S          12.43666         0.37370         4.63626
C          10.44406         0.64668         3.63491
N           9.91325         0.52516         2.37976
N          10.23764         0.18669         1.11756
C           9.32082         0.03135        -0.09744
N           9.73321        -0.31685        -1.51162
N           8.89456        -0.55181        -2.69773
C           9.84830        -0.80563        -3.84168
H           0.67283        -0.17193        -0.94156
H           0.65758         1.02182         0.37116
H           0.65758        -0.71223         0.74851
H           2.93294         0.79788        -0.63796
H           2.93294        -0.92787        -0.26242
H           2.71474        -0.39693         2.17884
H           2.71474         1.32941         1.80318
H           4.98268         1.10465         0.77193
H           4.98260        -0.62104         1.14738
H           4.82324        -0.08691         3.58899
H           4.82416         1.63330         3.21478
H           7.06744         1.39992         2.07997
H           7.06574        -0.35013         2.45677
H           7.02272         0.19744         4.84314
H           7.05211         1.88810         4.47676
H           8.21709         1.42983         6.51103
H          10.83939         1.49081         5.28710
H          10.81965         1.83848         7.97947
H          13.52091         2.10850         5.76117
H          12.14554         1.87168         8.92317
H          13.52571         2.71277         8.68542
H          13.50499         1.03279         9.24555
H          11.17527         0.24315         0.77688
H          10.29454        -1.15822        -1.38222
H           8.35140         0.26933        -2.98236
H          10.49939        -1.67428        -3.66189
H          10.50187         0.05903        -4.03317
H           9.32779        -1.01095        -4.78966

