%chk=CCCONdCC1dCCdCCdC[CH]1.chk
%NProcShared=20
# opt freq b3lyp/6-31g(2df,p)

Title Card Required 

0  2
C           1.05385         0.08096         0.04379
C           2.57408         0.07497         0.05482
C           3.13302        -0.59309         1.30678
O           4.56417        -0.56699         1.25426
N           5.06064        -1.22922         2.39257
C           6.35606        -1.18426         2.39253
C           7.22179        -1.77848         3.46326
C           6.80239        -2.94344         3.98444
C           7.45170        -3.77316         4.97498
C           8.56786        -3.54556         5.68549
C           9.43888        -2.39862         5.67049
C           9.39398        -1.33769         4.85241
C           8.50753        -1.17285         3.72889
H           0.68079         0.56470        -0.86485
H           0.65622         0.62752         0.90501
H           0.65617        -0.93869         0.07108
H           2.94816         1.10340        -0.01291
H           2.94780        -0.44248        -0.83670
H           2.79124        -1.63331         1.36311
H           2.79570        -0.05867         2.20268
H           6.90647        -0.66961         1.58314
H           5.86861        -3.36997         3.61516
H           6.92727        -4.70784         5.17059
H           8.86304        -4.31047         6.40311
H          10.23804        -2.42825         6.41032
H          10.14027        -0.55652         4.98168
H           8.94220        -0.60701         2.90864

