%chk=CCCqOrC1dCCdCCqdOrONd[SH]NdC1N.chk
%NProcShared=20
# opt freq b3lyp/6-31g(2df,p)

Title Card Required 

0  1
C           1.07297        -0.04557         0.09073
C           2.67685        -0.08075         0.07301
C           3.60838         0.92549         0.95772
O           2.81635         0.91240         2.24137
C           5.50367         1.05388         1.38260
C           5.23059         2.19699         1.93870
C           6.46302         2.63071         1.98044
C           7.31550         3.39218         2.52357
C           8.57810         3.36784         1.66997
O           8.95713         2.62426         0.74617
O           9.28253         4.21896         2.43886
N          10.57308         3.79473         2.38420
S          10.29588         2.64031         3.36662
N           8.72971         1.34387         2.58685
C           7.39443         0.54676         1.59603
N           6.55085        -0.00309         0.16417
H           0.65898        -0.86766        -0.53540
H           0.64787         0.87764        -0.32588
H           0.64230        -0.19809         1.08819
H           2.91201         0.04086        -0.98183
H           2.89406        -1.06788         0.45415
H           3.07487         1.92050         0.56876
H           2.90225         0.03225         2.63242
H           4.42462         2.79516         2.18641
H           6.99944         2.26293         1.16180
H           6.88211         4.02036         3.21407
H          10.88484         3.96239         4.42124
H           6.23280        -0.89156        -0.36538
H           5.36791        -0.14004         0.11914

