%chk=CCN1NNCCdNNdNNdCNdNS1.chk
%NProcShared=20
# opt freq b3lyp/6-31g(2df,p)

Title Card Required 

0  1
C           1.54718        -0.63997         0.07973
C           3.29021        -1.37870         0.09443
N           4.80062        -2.67726         0.08740
N           5.25813        -1.60882         0.87791
N           5.30437        -2.24937         2.01139
C           6.73736        -2.12801         1.82497
C           7.22233        -3.12333         2.71560
N           8.47111        -3.26727         2.66212
N           8.67525        -4.21296         3.55645
N           9.87602        -4.18938         3.72248
N          10.18024        -5.27730         4.43120
C          10.37717        -6.01045         3.37092
N           9.13515        -6.11073         2.17886
N           7.79824        -5.55310         1.44003
S           5.93517        -4.45192         0.73603
H           1.36126         0.39795        -0.44151
H           1.07608        -0.31399         1.05364
H           0.84563        -1.21918        -0.51036
H           3.55114        -0.33013         0.61614
H           3.50673        -0.90695        -0.89677
H           4.94451        -0.65796         1.10164
H           4.91400        -3.18303         1.67559
H           7.04550        -1.12178         2.05540
H           7.11507        -2.30931         0.73808
H           6.49116        -3.79251         3.24299
H          11.66389        -6.07044         3.42026

