%chk=CCN1CdNCdC2CdCNdC2S1.chk
%NProcShared=20
# opt freq b3lyp/6-31g(2df,p)

Title Card Required 

0  1
C           1.18205         0.07184         0.11827
C           2.70759         0.11285         0.19830
N           3.28782         0.45470         1.51336
C           3.92243        -0.49689         2.29694
N           4.93363        -0.49829         3.10179
C           5.81233         0.55109         3.16452
C           5.69741         1.82578         2.82090
C           6.79190         2.75860         2.73538
C           6.25206         3.92388         2.36094
N           4.87798         3.89147         2.17017
C           4.54743         2.63939         2.38134
S           2.96749         1.98132         2.15704
H           0.87207        -0.15663        -0.91173
H           0.72488         1.03249         0.37329
H           0.75243        -0.70180         0.76147
H           3.06903         0.83449        -0.54407
H           3.08393        -0.86442        -0.13318
H           3.45364        -1.48817         2.16416
H           6.79739         0.23840         3.51854
H           7.83884         2.51931         2.82555
H           6.82388         4.81233         2.11525

