%chk=CCOCSc1cccscccnccc2c1dCCd2.chk
%NProcShared=20
# opt freq b3lyp/6-31g(2df,p)

Title Card Required 

0  1
C           1.09435        -0.00909        -0.07907
C           2.73085        -0.04406        -0.18217
O           4.16180        -0.59939        -1.82046
C           6.42805        -0.92908        -2.78170
S           9.10038        -1.64369        -4.80474
C          11.92927        -2.18045        -6.57828
C           9.96339        -1.88068        -5.58076
C          10.39859        -1.09586        -3.79085
C          10.62141        -1.85793        -5.45503
S          12.64401        -1.66238        -4.96865
C          13.10933        -2.46147        -7.33626
C          13.96715        -2.17716        -6.48915
C          13.46248        -2.52089        -7.49481
N          15.34829        -2.34839        -6.99078
C          16.10589        -2.80891        -8.37249
C          17.78550        -2.76500        -8.23229
C          16.88583        -3.06358        -9.13007
C          14.54400        -2.76441        -8.20538
C          16.63277        -3.26458        -9.58146
C          18.80650        -3.29880        -9.80328
H           0.71886         0.32097         0.89695
H           0.71716        -0.99968        -0.26440
H           0.71716         0.66571        -0.82758
H           2.96561        -0.67851         0.69195
H           2.96562         0.99088         0.12740
H           5.26303        -1.07858        -1.14819
H           5.26408         0.18921        -1.57851
H           7.93609        -1.81611        -5.43504
H           9.55906        -1.11961        -3.10738
H           9.20021        -2.20437        -6.55893
H          11.83025        -2.63650        -7.85192
H          14.36617        -1.93625        -5.77896
H          13.60715        -3.01978        -8.97653
H          15.60555        -3.39722       -10.11070
H          18.70013        -2.71927        -8.09265
H          18.32826        -3.56622       -10.65495
H          20.53885        -3.15639        -9.38618

