%chk=CCOC1dCOC2dCCdCCdCCdCCdCC2dN1.chk
%NProcShared=20
# opt freq b3lyp/6-31g(2df,p)

Title Card Required 

0  1
C           1.04746         0.06897         0.06706
C           2.57630         0.06843         0.07453
O           3.13122        -1.09275         0.70866
C           4.81649        -1.32585         0.83582
C           4.91540        -2.56664         0.44482
O           6.18151        -3.00311         0.49437
C           7.05924        -2.08719         0.90146
C           8.30556        -2.42933         0.84300
C           8.77024        -3.66937         0.50871
C          10.08946        -3.98818         0.34858
C          10.30689        -5.19248        -0.10837
C          11.38445        -4.32371        -0.30407
C          11.76715        -5.96130        -0.07820
C          13.00239        -5.74994         0.58274
C          11.61860        -4.48689         1.66460
C          10.29314        -3.07474         1.88471
C           8.28472        -1.70647         1.60939
N           6.64570        -0.93820         1.31175
H           0.66461         0.98558        -0.38631
H           0.66300         0.00148         1.08383
H           0.66365        -0.77985        -0.49858
H           2.91304         0.92601         0.63451
H           2.91404         0.13557        -0.95475
H           4.26923        -3.32479         0.10664
H           9.41508        -2.10912         0.72154
H           8.09810        -4.35465         0.28388
H          11.42701        -3.15336         0.87197
H           9.97607        -6.16905         0.09117
H          12.69656        -3.97037         0.47377
H          11.89827        -7.24047        -0.24093
H          14.50790        -6.14634         0.55881
H          12.77459        -5.73436         1.03159
H          10.01807        -1.45910         1.77944

