%chk=CCOCqOrdC1[C]q[N]OrC2dCCdCCdCCdC21.chk
%NProcShared=20
# opt freq b3lyp/6-31g(2df,p)

Title Card Required 

0  1
C           1.11199         0.01379        -0.10925
C           2.62130         0.16361        -0.23057
O           2.97894         1.28530        -1.11276
C           4.36325         1.50814        -1.10342
O           5.03177         0.86905        -0.05568
C           5.12796         2.35528        -1.86853
C           6.55985         2.17229        -2.13050
N           7.38714         1.14195        -2.28580
O           6.87942        -0.06091        -1.74356
C           6.69701         3.47936        -2.67076
C           7.78807         4.25564        -2.82926
C           7.94112         5.48070        -3.54082
C           7.14908         6.57861        -3.42626
C           6.02803         6.66722        -2.53322
C           4.93243         5.87433        -2.46240
C           4.58870         4.64422        -3.19601
C           5.24260         3.47206        -2.91693
H           0.83679        -0.83067         0.53855
H           0.66275        -0.14823        -1.09113
H           0.67699         0.92045         0.31927
H           3.03215        -0.78630        -0.61096
H           3.00469         0.30945         0.79208
H           5.27486        -0.00258        -0.42335
H           7.38318        -0.67702        -2.30121
H           8.67381         3.90703        -2.30256
H           8.81161         5.52007        -4.18383
H           7.43431         7.47037        -3.97326
H           6.13620         7.45506        -1.78670
H           4.20806         6.09183        -1.69023
H           4.49262         4.88313        -4.26631

