%chk=CCqCrNSC1dCCdCCdNNdC2CdCS2dNS1.chk
%NProcShared=20
# opt freq b3lyp/6-31g(2df,p)

Title Card Required 

0  1
C           1.14164         0.22915         0.01495
C           2.77713         0.37615        -0.04596
C           3.12627        -0.93751        -0.83500
N           3.41827         1.95130        -0.60791
S           5.11111         3.04393        -0.07143
C           6.20269         4.64905        -1.06628
C           7.10628         3.70201        -1.33673
C           7.62664         4.02273        -2.56748
C           8.91664         4.12190        -2.37245
C           9.37129         5.24358        -3.06013
N          10.64103         5.21570        -3.14348
N          10.89479         6.22086        -3.98299
C          11.48708         7.01277        -3.20258
C          12.82128         6.84462        -2.63895
C          12.83300         8.16791        -2.77515
S          10.81227         8.29908        -2.05125
N           9.19261         7.42652        -2.09459
S           7.73788         6.40766        -0.76429
H           0.78776        -0.74961         0.43306
H           0.67483         0.26323        -0.97903
H           0.67736         0.97882         0.65709
H           3.06137         0.20713         1.00509
H           2.70904        -0.92811        -1.84943
H           2.69323        -1.86372        -0.37951
H           4.19859        -1.09459        -0.85694
H           2.78213         2.46487         0.01685
H           7.22090         2.63562        -1.10515
H           6.98970         4.67406        -3.17681
H           9.48806         3.78178        -1.52043
H           8.67374         6.01643        -3.50065
H          13.58758         6.05121        -2.64121
H          13.91293         8.61885        -3.03037

