%chk=CCqdNC1dCdCCdCCdCCdCS1rC1dCC1.chk
%NProcShared=20
# opt freq b3lyp/6-31g(2df,p)

Title Card Required 

0  1
C           1.17619         0.39880         0.17922
C           2.70275         0.93834         0.20748
N           3.43290         2.08970         0.71679
C           3.28477         3.37389         1.81181
C           3.44015         2.80935         3.03057
C           4.28118         2.65017         3.93604
C           5.57489         3.18156         3.49822
C           6.23549         4.07242         4.21909
C           7.20918         4.92830         3.56890
C           7.45332         6.07351         4.22893
C           6.74615         7.09652         3.37977
C           5.38231         6.68417         3.31922
S           4.10903         5.42460         2.09431
C           3.32915        -0.21460        -0.79502
C           4.25725        -0.93943        -1.35329
C           2.95884        -1.39139        -1.71567
H           0.51073         0.84327         0.89589
H           1.02695        -0.72257         0.24246
H           0.79121         0.53716        -0.85773
H           3.93753         2.87489         4.95259
H           5.73781         3.27837         2.40166
H           5.72563         4.44914         5.11268
H           7.03372         5.09521         2.47628
H           7.36387         6.09713         5.32251
H           7.64922         7.37236         2.78530
H           5.15537         7.03954         4.37101
H           5.30695        -1.00867        -1.17540
H           2.61610        -2.40636        -1.44059
H           2.51323        -1.19290        -2.70046

