%chk=Cd[SH]CdCCdCCqCCr[SH]dNS.chk
%NProcShared=20
# opt freq b3lyp/6-31g(2df,p)

Title Card Required 

0  1
C           1.06793         0.06552        -0.11395
S           2.85496         0.22053        -0.00607
C           3.29369        -0.48904        -1.59113
C           4.61310        -0.63412        -1.83891
C           5.14078        -1.16788        -3.07897
C           6.44074        -1.14990        -3.45540
C           6.95344        -1.54502        -4.84641
C           6.43085        -0.60294        -5.96065
C           4.91470        -0.54739        -6.10192
S           8.82733        -1.44645        -4.83583
N           9.12810        -2.09260        -6.16988
S          10.83234        -2.10989        -6.35244
H           0.46665         0.30934         0.77772
H           0.53218        -0.24481        -1.02268
H           3.12780        -0.79356         0.78703
H           2.55649        -0.76039        -2.34142
H           5.34510        -0.30742        -1.10592
H           4.39950        -1.55543        -3.77001
H           7.19047        -0.77691        -2.76269
H           6.69324        -2.59092        -5.05112
H           6.83169        -0.92108        -6.93082
H           6.80323         0.41582        -5.79256
H           4.49334        -1.55395        -6.19204
H           4.62570         0.03053        -6.98288
H           4.45142        -0.03565        -5.25483
H           9.14046        -2.44776        -4.04487
H          10.92355        -2.53131        -7.62440

