%chk=CdC1CdCdCCdCqCOrCdCCdCCdC1.chk
%NProcShared=20
# opt freq b3lyp/6-31g(2df,p)

Title Card Required 

0  1
C           2.67156        -0.86943         0.29235
C           4.37964        -0.97843         0.50938
C           3.66091         0.69361         0.34568
C           4.60491         1.44937         0.18010
C           5.83167         1.41704         0.22546
C           6.56581         0.45564         0.90150
C           7.88044         0.40750         0.85642
C           8.70899         1.35810         0.13778
O           7.97336         2.35010        -0.51324
C           8.56410        -0.39455         1.80445
C           9.88705        -0.58082         1.83859
C          10.28614        -1.83500         2.41899
C           9.90553        -2.35318         1.20596
C           7.97986        -2.39828         0.85567
C           6.14870        -1.92248         0.64822
H           1.72834         0.17385         0.23754
H           1.43675        -1.15072         0.10164
H           2.72265         1.53573         0.37960
H           6.10403         2.30816        -0.19557
H           6.01641        -0.21552         1.55161
H           9.30256         0.88570        -0.63141
H           9.29867         1.81996         0.91962
H           7.40361         1.83030        -1.12142
H           7.96410        -1.15260         2.34950
H          10.55732        -0.13383         1.05065
H          10.18324        -2.67321         3.12514
H          11.30819        -1.93904         1.23420
H           8.90331        -3.34742         1.22135
H           5.34385        -2.55162         0.32515

