%chk=CdC1CN2CdC2CqdNOCOC2dCCdC2rC1dNO.chk
%NProcShared=20
# opt freq b3lyp/6-31g(2df,p)

Title Card Required 

0  1
C           0.96420        -0.09323         0.01521
C           2.30076        -0.14590         0.07560
C           3.26561         0.91996         0.54884
N           4.27746         0.95629        -0.52086
C           5.55394         0.97644        -0.64750
C           5.27436        -0.24577        -0.31757
C           4.43280        -1.41179         0.12743
N           4.63262        -2.33007         1.02882
O           5.90510        -2.22218         1.63110
C           6.08093        -3.18471         2.71645
O           7.44621        -3.13450         3.07903
C           7.99318        -3.80250         4.01317
C           9.26629        -3.84307         4.44975
C           8.93396        -4.79815         5.44784
C           7.64826        -4.77284         5.02343
C           3.05322        -1.30756        -0.50253
N           2.66517        -2.00028        -1.53152
O           3.68119        -2.85909        -1.97228
H           0.40887         0.76068         0.38627
H           0.39603        -0.90817        -0.42647
H           3.71020         0.64858         1.51654
H           2.76246         1.88337         0.69307
H           6.35495         1.49549        -1.14424
H           5.80731        -4.19044         2.37449
H           5.44740        -2.88017         3.55858
H          10.16507        -3.32794         4.13233
H           9.56692        -5.27467         6.19042
H           6.73065        -5.27408         5.31750
H           3.27909        -3.27940        -2.75545

