%chk=CdC1CNdCCdCCdCCdCCdCS1.chk
%NProcShared=20
# opt freq b3lyp/6-31g(2df,p)

Title Card Required 

0  1
C           3.62065         0.12677        -0.04571
C           5.58640         0.22433        -0.29723
C           3.70714         1.11302        -0.68603
N           4.95066         1.40382        -0.77498
C           5.42783         2.25342        -1.37508
C           6.67268         2.18864        -1.30992
C           7.65243         2.86134        -1.79484
C           9.10016         2.52384        -1.52420
C           9.76431         3.42280        -2.10745
C          10.57167         3.18406        -0.93787
C          11.37145         3.62564        -2.03040
C          12.21958         2.15588        -1.71057
C          10.61831         1.12443        -1.69498
S           8.14013         0.50275        -0.75994
H           2.06097         0.56632        -0.28744
H           2.12309        -0.26218         0.30100
H           2.99534         2.14421        -0.23865
H           2.99216         1.15296        -1.74773
H           4.90919         2.89985        -1.82031
H           7.59633         2.15191        -1.25845
H           7.35977         3.63999        -2.30887
H           9.67289         1.48260        -0.56824
H           9.66289         4.28647        -2.72189
H          11.29571         1.98953        -0.32802
H          11.98016         4.37064        -2.74423
H          13.80180         2.55723        -1.66465
H          11.89414         2.17664        -1.76646

