%chk=CdC1Cdc2ccccc2dCCdCNC1.chk
%NProcShared=20
# opt freq b3lyp/6-31g(2df,p)

Title Card Required 

0  1
C           0.74275        -0.22097         0.29481
C           2.05734         0.08638         0.57898
C           3.00599        -1.13996         0.53652
C           4.35620        -1.23820         0.31715
C           5.12970        -2.50938         0.55981
C           6.46015        -2.45299         0.80563
C           7.24580        -1.25410         0.61618
C           6.62304        -0.10772         0.12926
C           5.16490        -0.09016        -0.07778
C           4.68146         1.00865        -0.81075
C           3.31654         1.15795        -1.65197
C           2.38974         2.23918        -1.59987
N           1.51963         2.18064        -0.47769
C           2.42494         1.72226         0.57996
H           0.29767        -1.20218         0.17709
H           0.02039         0.54635        -0.00318
H           2.48203        -2.10550         0.59421
H           4.61433        -3.46713         0.59388
H           7.03675        -3.33569         1.10319
H           8.32135        -1.27104         0.72651
H           7.23466         0.69431        -0.23331
H           5.27327         1.89429        -0.59000
H           2.84857         0.14546        -1.62135
H           2.66693         3.28839        -1.36393
H           0.70734         2.79835        -0.32436
H           2.78532         2.23331         1.47335
H           3.36698         2.25106         0.17296

