%chk=CdC1CdNCdCCdCNdCqCCCrCqNrdC1.chk
%NProcShared=20
# opt freq b3lyp/6-31g(2df,p)

Title Card Required 

0  1
C           2.62588         0.17440        -0.32684
C           4.61657         0.47212        -0.69740
C           3.16677         0.94478        -1.12596
N           4.45502         1.14266        -1.32608
C           5.09403         1.92631        -2.14509
C           6.46772         2.20915        -2.40540
C           6.81614         3.05975        -3.24128
C           7.29530         2.40567        -2.31236
N           8.53252         3.16509        -3.39376
C           9.97726         3.19492        -3.48228
C          11.70044         2.36199        -2.59252
C          10.67723         1.70764        -1.91690
C          11.29633         0.85513        -1.03094
C           8.62519         2.03161        -2.49256
N          10.42054         3.03669        -3.43483
C           6.85741         0.99363        -1.43543
H           0.98823         0.50041        -0.66406
H           1.16149        -0.45790         0.34325
H           2.60567         1.56617        -1.77374
H           4.53650         2.46175        -2.70735
H           7.86815         1.43942        -1.55372
H           6.68132         3.58040        -3.93744
H           8.84660         1.46758        -1.45284
H          12.15004         3.22668        -2.16780
H          12.15020         1.89120        -3.44515
H          10.07309         1.09587        -2.72452
H          10.06415         2.54185        -1.35235
H          11.89314         0.20397        -1.63614
H          10.55708         0.32314        -0.47626
H          11.89318         1.48701        -0.40614
H          11.48515         3.93885        -4.26824
H          11.93336         3.47053        -3.77727
H           5.82908         0.27305        -0.46188

