%chk=CdC1CdCCdCCdCCdCSCdCCdNCdC1.chk
%NProcShared=20
# opt freq b3lyp/6-31g(2df,p)

Title Card Required 

0  1
C           3.78398        -0.64112         0.58734
C           6.09546        -1.12959         1.04513
C           3.84205        -1.17922         1.09163
C           5.17778        -1.10584         1.02287
C           5.16288        -2.22227         2.06917
C           6.54928        -2.31385         2.15499
C           7.30154        -3.02781         2.82411
C           8.56854        -3.19921         2.98474
C           9.34413        -3.97686         3.71354
C          10.59128        -4.13078         3.85779
S          11.45455        -5.11846         4.78343
C          12.99293        -5.00133         4.67366
C          14.01788        -5.59311         5.22826
C          14.63824        -4.39901         4.10918
N          13.03912        -3.40853         3.18091
C          10.94264        -2.55069         2.37695
C           8.63203        -1.81091         1.68365
H           1.87880        -0.66365         0.60845
H           2.08089        -0.02310         0.00814
H           2.58392        -1.70217         1.58174
H           5.17808        -0.11981         0.09877
H           4.54655        -2.72508         2.54039
H           7.15593        -1.69220         1.57240
H           6.74268        -3.61737         3.37663
H           9.48150        -2.75009         2.56383
H           8.85555        -4.58404         4.28258
H          10.35078        -3.48997         3.25724
H          12.17425        -4.15862         3.88388
H          13.99924        -6.36155         5.94843
H          16.06698        -3.82137         3.56781
H          12.59458        -3.28905         3.06893
H           7.74347        -0.87543         0.80692

