%chk=CdC1NdNCdCNdNNdNCC2dCqCdCC2rOCCdNC1dO.chk
%NProcShared=20
# opt freq b3lyp/6-31g(2df,p)

Title Card Required 

0  1
C           2.48271         1.07373         0.10613
C           4.03954         2.20391        -0.13674
N           3.27864         1.39089        -1.14133
N           4.29512         0.80663        -1.40897
C           5.13630         1.82536        -1.93561
C           6.52133         1.84768        -1.76381
N           7.24388         2.97721        -2.19171
N           8.50748         3.01699        -2.02364
N           9.15308         4.09681        -2.77178
N          10.40417         4.08640        -2.62776
C          11.16011         5.04944        -3.40198
C          12.59022         5.04919        -3.19664
C          13.48799         6.00623        -3.08838
C          14.81644         5.33897        -2.96337
C          14.61516         4.00803        -2.97884
C          13.19518         3.75206        -3.13029
O          12.86009         7.30160        -3.03195
C          10.86671         7.19808        -2.74027
C           9.00532         6.12417        -1.87372
N           7.52091         4.87084        -1.24421
C           5.88826         3.66843        -0.52838
O           5.78636         2.32362         0.26972
H           1.00344         0.81176        -0.36737
H           1.37914        -0.10160         0.44416
H           4.53447         2.84988        -1.94161
H           6.97494         1.26402        -0.88993
H          10.80200         5.78293        -2.89796
H          10.86643         5.25228        -4.40977
H          15.81031         5.72594        -2.86829
H          15.28876         3.18013        -2.90373
H          12.82780         3.24696        -2.25848
H          13.01816         3.26040        -4.06443
H          11.61616         7.36332        -1.97338
H          11.41165         7.52248        -4.07659
H           9.78251         7.53436        -2.14259

