%chk=CdC1C2dS1CqdCCrCdCCdCNdC2.chk
%NProcShared=20
# opt freq b3lyp/6-31g(2df,p)

Title Card Required 

0  1
C           3.08873        -0.59012        -0.01642
C           4.88826        -1.10074        -0.04398
C           4.94523        -2.45065        -0.14433
S           7.53976        -1.70594        -0.09651
C           9.78249        -3.53354        -0.21298
C          11.03604        -4.95803        -0.31010
C          12.94394        -5.78859        -0.36875
C           9.38621        -4.93622        -0.30856
C           8.56591        -3.97373        -0.23932
C           7.31298        -4.26851        -0.26105
C           6.49020        -3.38488        -0.19274
N           5.41164        -2.76443        -0.13747
C           5.23030        -1.01445         0.01377
H           1.82198         0.23186         0.06038
H           1.60747        -0.96540        -0.02719
H          11.12694        -6.48314        -0.41851
H          13.69400        -4.99494        -0.31226
H          13.55905        -6.44168        -1.28481
H          13.55906        -6.56506         0.44517
H           9.00706        -5.93137        -0.37893
H           8.71082        -2.74983        -0.14867
H           6.74748        -5.04125        -0.31522
H           6.24467        -2.05676        -0.10151
H           6.01085         0.02043         0.04642

