%chk=CdC1NdCCdCNdCN1SCCCO.chk
%NProcShared=20
# opt freq b3lyp/6-31g(2df,p)

Title Card Required 

0  1
C           1.76783        -0.16240         0.02610
C           3.07777        -0.67757        -0.24276
N           3.02462        -1.22571        -1.46703
C           4.06036        -0.61759        -2.12385
C           4.90285        -1.41108        -2.99789
C           6.07641        -1.22850        -2.40197
N           6.20161        -2.08129        -1.30258
C           5.90942        -1.41359        -0.21831
N           4.49928        -0.51837         0.48899
S           4.48592         1.37641         1.06812
C           3.65024         2.27895         2.89220
C           2.65417         3.36365         3.91276
C           3.53825         4.22376         4.92670
O           2.79232         4.98473         5.89226
H           0.97328        -0.44483        -0.69290
H           1.24358         0.46234         0.73083
H           4.53247         0.26283        -1.66993
H           4.52999        -2.45337        -3.06527
H           6.50985        -0.24022        -2.08762
H           6.98447        -1.01902        -0.06891
H           4.14550         3.21040         2.51735
H           4.25067         1.82236         3.66652
H           1.97552         2.78553         4.57345
H           1.99864         4.09924         3.41124
H           4.17782         4.93179         4.39217
H           4.17715         3.56654         5.52333
H           2.30433         5.70566         5.45820

