%chk=CdC1CdCCqCdOrCdCCdCCdCN1.chk
%NProcShared=20
# opt freq b3lyp/6-31g(2df,p)

Title Card Required 

0  1
C           2.58754        -0.04827        -0.00908
C           4.37877        -0.06035        -0.23119
C           3.28601         1.07447        -0.70155
C           4.44879         1.49647        -0.90391
C           5.14080         2.40085        -1.58925
C           4.77656         3.57824        -0.84898
O           3.61879         3.96529        -0.82940
C           6.52703         2.31172        -1.44980
C           7.31784         3.16484        -1.96155
C           8.51815         3.19703        -1.19889
C           9.44982         3.42505        -2.12712
C           9.83992         1.71616        -1.63985
C           8.33017         0.64342        -1.17680
N           6.45132         0.17589        -0.66986
H           1.23627         0.57647        -0.34227
H           1.29759        -0.58988         0.46312
H           2.62351         1.81691        -1.22409
H           5.29784         1.28796        -0.41666
H           4.90860         2.14735        -2.56076
H           5.59322         4.12999        -0.37084
H           7.12588         1.81787        -0.73583
H           7.14049         3.91341        -2.65319
H           8.92592         2.18867        -0.24007
H           9.62220         4.23551        -2.89450
H          11.28910         2.15653        -1.56306
H           9.33845         1.70569        -1.70619
H           6.08015        -0.39066         0.25812

