%chk=CdC1NCdCCdCCdCCdCqNrC1C.chk
%NProcShared=20
# opt freq b3lyp/6-31g(2df,p)

Title Card Required 

0  1
C           1.90248        -0.08374         0.02418
C           3.82896        -0.29661         0.14486
N           3.15096        -1.14851         0.84303
C           4.38444        -1.20473         0.89192
C           5.12626        -1.99811         1.50843
C           6.48423        -2.07655         1.56285
C           6.74066        -3.01790         2.29400
C           8.08043        -2.51189         2.36198
C           8.83629        -3.58832         2.78203
C           9.96025        -2.90906         2.14690
C           8.58367        -2.12572         0.98430
N          10.39376        -3.01122         2.19609
C           6.24474        -0.67836         0.36340
C           4.32130         0.62873        -0.55651
H           0.56667        -0.66199         0.46657
H           0.61102         0.67062        -0.56700
H           2.48609        -1.68834         1.26623
H           5.05707        -0.46457         0.33030
H           4.62065        -2.67262         2.02988
H           7.40112        -1.28328         0.98517
H           6.73865        -3.77414         2.87599
H           9.32443        -1.31499         1.45058
H           9.03112        -4.45863         3.41092
H          11.69988        -2.62292         1.98584
H          11.59238        -4.02417         3.06876
H          12.00368        -3.57331         2.70726
H           5.51886         0.50023        -0.44228
H           2.63982         1.13944        -0.93476
H           3.18244         1.28604        -1.74571
H           3.18462         1.96044        -0.87541

