%chk=CdC1CdCC2dCCdC1SCdCC2SCCSC.chk
%NProcShared=20
# opt freq b3lyp/6-31g(2df,p)

Title Card Required 

0  1
C           1.60054        -0.20656        -0.46271
C           2.89892         0.04681        -0.79829
C           3.24351         1.38878        -0.40860
C           4.44365         1.69810         0.12181
C           5.59281         0.83460         0.40405
C           5.53016        -0.51002         0.66678
C           4.48446        -1.40059         0.12491
C           3.99278        -0.99030        -1.06558
S           5.34155        -0.62596        -2.44200
C           7.02817        -0.41696        -1.66824
C           7.48026         0.81253        -1.28761
C           6.99245         1.42775         0.05361
S           6.85238         3.28558        -0.10401
C           8.53904         3.88869        -0.08327
C           8.44794         5.42569        -0.08597
S          10.14915         6.08323        -0.10114
C           9.82881         7.86476        -0.10606
H           0.96175         0.60715        -0.08847
H           1.10304        -1.16491        -0.41590
H           2.48611         2.16529        -0.36958
H           4.51454         2.74969         0.35107
H           6.44256        -1.08280         0.82463
H           4.80551        -2.44682         0.13751
H           7.38389        -1.23889        -1.03532
H           7.63821         1.55995        -2.06568
H           7.67748         1.20291         0.87658
H           9.04788         3.52667        -0.97977
H           9.04496         3.52554         0.81528
H           7.91820         5.78941         0.80522
H           7.90533         5.78488        -0.97122
H          10.79999         8.36892        -0.11597
H           9.29411         8.18020         0.79371
H           9.27896         8.17412        -0.99884

