%chk=CdC1CCqdOrCdCCdCCdCC1dN.chk
%NProcShared=20
# opt freq b3lyp/6-31g(2df,p)

Title Card Required 

0  1
C           2.07412         0.10148        -0.02284
C           3.90340         0.04422         0.14609
C           3.12398        -0.59032         1.38259
C           4.41847        -0.50785         1.58651
O           5.32680        -0.95058         1.01852
C           5.29903        -0.99792         2.48626
C           6.58582        -1.02172         2.42864
C           7.59016        -1.46154         3.16035
C           8.12719        -0.96556         2.01422
C           9.28227        -1.02064         2.41575
C           8.17777        -0.32982         1.08600
C           6.12247         0.18030         0.00410
N           4.88407         0.60930        -1.00424
H           0.84392        -0.28680         0.76603
H           0.81383         0.42487        -0.68929
H           2.80555        -1.61559         1.38065
H           2.79506         0.06151         2.17441
H           5.00332        -1.47919         3.25474
H           6.71903        -0.54944         1.27570
H           7.49590        -1.88797         4.11592
H           9.52246        -0.53631         1.03780
H           9.61749        -1.72132         3.76615
H           9.52363        -0.80046         2.10923
H           3.94981         1.01484        -1.94260

