%chk=CdC1CdCCdCNdCc2sncc2C1.chk
%NProcShared=20
# opt freq b3lyp/6-31g(2df,p)

Title Card Required 

0  1
C           2.02331         0.18466         0.07704
C           3.73730         0.66342         0.35273
C           3.11449         0.45769         1.58086
C           4.26107         0.03869         1.98242
C           4.97111         0.86050         2.83389
C           6.22777         0.45449         2.88609
N           6.91564         0.85576         3.91118
C           8.13762         0.57158         3.57620
C           8.22486         1.92099         3.75049
S           8.42319         1.42718         5.82350
N           9.55471         2.47946         5.33355
C           8.88471         2.60804         3.68246
C           7.50687         2.10226         2.18685
C           5.72636         1.27424         0.86935
H           0.82245         0.28649         0.80556
H           0.91765        -0.34484        -0.68993
H           2.41357         1.00917         2.14572
H           4.95008        -0.65961         1.41049
H           4.53265         1.53625         3.48464
H           6.97648         0.23380         1.82866
H           9.13632         0.81412         2.73742
H          10.13869         3.01481         4.41414
H           5.41364        -0.00050         0.14742
H           5.26571         0.82400        -0.39951

