%chk=CdC1C2dCCdCCdCCdCCdCSCdCCdC12.chk
%NProcShared=20
# opt freq b3lyp/6-31g(2df,p)

Title Card Required 

0  1
C           1.21822        -0.24559         0.00859
C           2.75627        -1.52836         0.00859
C           3.90889        -1.31230         0.00859
C           3.73692        -2.55589         0.00859
C           2.87143        -4.28259         0.00874
C           3.48513        -5.36042         0.00851
C           2.67088        -6.24130         0.00861
C           3.70101        -7.00783         0.00857
C           2.63060        -7.88010         0.00859
C           3.62138        -8.47232         0.00859
C           2.93353        -9.99905         0.00859
C           3.62426       -11.39462         0.00859
S           3.15188       -12.88800         0.00859
C           4.57368       -10.61479         0.00859
C           5.08457        -8.37110         0.00859
C           4.96849        -5.67697         0.00859
C           4.25944        -3.48163         0.00859
H           0.36749        -0.91595         0.00859
H           0.41828         0.88367         0.00859
H           5.28088        -2.02731         0.00859
H           2.34014        -3.32998         0.00850
H           5.15123        -4.60078         0.00858
H           1.98379        -5.64996         0.00857
H           5.19190        -7.01541         0.00859
H           1.92145        -8.38035         0.00858
H           5.25697        -9.45526         0.00859
H           2.14251       -10.69156         0.00859
H           5.32175       -11.83646         0.00859
H           4.68904       -12.63123         0.00859
H           4.77672       -10.28260         0.00859
H           4.85391        -3.71981         0.00859

