%chk=CdCC1dC2CdC3CqdNN32rCdCCdCNdCCdN1.chk
%NProcShared=20
# opt freq b3lyp/6-31g(2df,p)

Title Card Required 

0  1
C           2.15861        -0.42940        -0.31257
C           3.99108        -1.08720        -0.93016
C           5.88876        -2.21960        -1.99334
C           5.01976        -1.07613        -0.91977
C           5.37863        -2.05083        -1.83489
C           7.14504        -1.40667        -1.23011
C           7.71082        -2.24665        -2.01874
N           6.55542        -3.08754        -2.80822
N           6.07772        -1.52342        -1.33972
C           9.09802        -2.41257        -2.17452
C           9.59793        -3.17884        -2.89394
C          11.30828        -3.51638        -3.21085
C          10.96525        -4.82040        -4.43516
N          12.82880        -4.04734        -3.70936
C          12.05568        -4.93656        -4.54422
C           9.81231        -4.21830        -3.86987
N           7.92461        -3.38446        -3.08700
H           0.88584         0.46301         0.52528
H           0.65039        -0.67747        -0.54548
H           3.32200         0.09607         0.18077
H           4.48236        -2.74753        -2.48900
H           9.60936        -1.90729        -1.70013
H           8.59842        -4.29938        -3.94599
H          11.73425        -2.84653        -2.58195
H          10.93901        -5.55617        -5.12596
H          13.10087        -5.96139        -5.50641
H          11.97548        -4.61935        -4.24640

