%chk=CdCC1dCCdCCdCCdCCdCCNdC1.chk
%NProcShared=20
# opt freq b3lyp/6-31g(2df,p)

Title Card Required 

0  1
C           1.55916        -0.22785         0.15967
C           3.20143        -0.84316         0.57375
C           4.59257        -2.23521         1.51060
C           4.78226        -1.06324         0.72184
C           5.62728        -1.94452         1.31484
C           6.90223        -1.98277         1.34057
C           7.83726        -3.02243         2.04004
C           9.07406        -2.87980         1.94419
C           9.74448        -3.94621         2.66154
C          10.95547        -3.92903         2.65024
C          11.27056        -5.14299         3.46716
C          12.66846        -5.25770         3.54436
C          10.55942        -5.38868         3.63269
N           8.27480        -4.52514         3.05183
C           6.42438        -3.66141         2.47071
H           0.67048         0.76197        -0.50639
H           0.55927        -0.69802         0.47606
H           3.08986         0.47927        -0.31616
H           5.15263        -0.22306         0.15645
H           5.67204        -2.80199         1.89167
H           7.26193        -1.23146         0.83502
H           7.14696        -4.41434         2.97633
H           9.53719        -2.15961         1.45960
H           9.18291        -5.31122         3.58006
H          11.60910        -3.37889         2.28008
H          10.75106        -6.51889         4.39301
H          13.51538        -4.58002         3.08833
H          11.98960        -6.47529         3.71795
H          11.98963        -5.87708         4.60696
H           4.87356        -3.79582         2.56066

