%chk=CdCCN1CdCNdCCdCSCdCCdC2CCdCqCtNrC21.chk
%NProcShared=20
# opt freq b3lyp/6-31g(2df,p)

Title Card Required 

0  1
C           2.62369         0.37230        -0.24817
C           5.19252         0.99694        -0.68572
C           8.39444         2.08934        -1.50314
N          12.11665         3.00298        -2.33011
C           9.18992         2.35893        -1.90106
C           7.98760         0.63869        -1.39240
N           8.01596         2.09507        -2.82809
C           9.21621         2.81573        -3.25571
C          10.33798         2.55298        -3.14002
C          11.59777         2.29411        -3.54483
S          12.55129         3.47834        -3.88179
C          13.93703         2.98749        -3.42764
C          15.08989         3.43238        -4.49014
C          16.32184         3.10365        -3.51807
C          17.41615         3.62614        -4.07034
C          17.76243         4.75388        -5.23156
C          19.09353         5.45275        -5.09596
C          19.91771         4.76206        -4.34236
C          21.33514         5.18234        -3.98930
N          22.51101         5.53101        -3.69640
C          15.90326         3.85442        -3.25502
H           0.69321        -0.48714         0.59624
H           0.55303         0.57186        -0.59214
H           3.37852        -0.18063         0.33152
H           5.95300         1.86001        -1.19754
H           6.01598         1.42081        -1.58508
H           6.83097         2.13946        -2.11964
H           7.13311         0.56620        -0.60285
H           9.84166         1.43813        -2.25305
H           9.71138         3.28828        -3.64934
H          11.87673         1.61313        -2.02494
H          14.18476         2.11354        -2.39790
H          15.09121         4.29386        -4.73365
H          16.76326         2.38053        -2.64878
H          16.96758         5.46199        -5.13198
H          17.66059         4.31566        -6.21824
H          19.34653         6.37175        -5.53233
H          17.58102         2.97249        -3.21145

