%chk=CdCC1dCqSCrCdCCdCCdCSCdC1.chk
%NProcShared=20
# opt freq b3lyp/6-31g(2df,p)

Title Card Required 

0  1
C           1.41453         0.00022        -0.19092
C           3.07684        -0.05070        -0.92960
C           4.59772        -0.15718        -2.51238
C           4.73092        -0.06240        -1.09468
S           5.48651         0.04071         0.39242
C           4.29064         0.13406         1.73836
C           5.51814        -0.13822        -2.18667
C           6.78879        -0.13446        -2.15464
C           7.67183        -0.20277        -3.22286
C           8.74146        -0.26150        -3.30055
C           8.14939        -0.43907        -5.74995
C           9.50055        -0.28037        -4.55653
S          10.64390        -0.41144        -6.13711
C           8.72247        -0.25867        -4.61886
C           6.51894        -0.25181        -4.07954
H           0.58136         0.07981         0.95634
H           0.49599        -0.04386        -0.82730
H           2.84371         0.05727         0.63035
H           4.77991         0.19914         2.67681
H           3.65344        -0.77931         1.77236
H           3.65344         1.04338         1.64596
H           5.60404        -0.21178        -3.21637
H           7.29141        -0.08233        -1.37968
H           7.09479        -0.32764        -5.04509
H           9.56327        -0.17506        -2.71379
H           8.90173        -0.43381        -6.39654
H          11.09398        -0.27502        -4.13260
H          10.52050        -0.35334        -5.31195
H           4.83810        -0.27877        -4.17274

