%chk=CdCC1dCCdCCdCCqCrdCCCCCSS1.chk
%NProcShared=20
# opt freq b3lyp/6-31g(2df,p)

Title Card Required 

0  1
C           1.82175        -0.14558        -0.60506
C           3.44488        -0.46050        -1.37971
C           4.92946        -1.05736        -2.84794
C           4.96926        -0.49829        -1.47269
C           5.65078        -0.99833        -2.70271
C           6.91945        -0.81874        -2.26095
C           7.98049        -1.10509        -2.96532
C           9.16644        -1.20231        -3.20448
C           9.60799        -1.66596        -4.34499
C           8.15638        -2.30469        -5.91616
C          10.95915        -1.61002        -4.20740
C          11.68520        -2.03776        -5.25959
C          13.11005        -2.14530        -5.52411
C          13.46754        -2.92568        -7.44377
C          12.59447        -2.55713        -6.53720
S           9.80669        -2.35201        -6.03267
S           6.90860        -1.78642        -4.64136
H           0.92066         0.32890         0.56213
H           0.64882        -0.27661        -0.92736
H           3.27992         0.12229         0.05387
H           5.21480        -0.07244        -0.42513
H           4.98794        -1.57615        -4.12408
H           7.21104        -0.45487        -1.36587
H           8.24586        -1.51676        -3.97797
H           9.60795        -0.88887        -2.43345
H           7.21336        -2.45319        -6.28151
H           8.57633        -3.60255        -6.32034
H           8.57632        -1.65695        -7.11128
H          11.69822        -1.35669        -3.58425
H          11.47496        -1.41396        -6.63640
H          11.47496        -3.44527        -5.81063
H          13.45491        -2.92196        -4.75935
H          13.45492        -1.05533        -5.51818
H          13.65428        -2.10522        -8.12497
H          13.65428        -3.98872        -7.35929
H          14.15644        -3.05697        -6.10736
H          14.15644        -1.89916        -6.57803

