%chk=CdCC1dNCCqNdNrdCC1C.chk
%NProcShared=20
# opt freq b3lyp/6-31g(2df,p)

Title Card Required 

0  1
C           1.06976         0.08533         0.01126
C           2.40864         0.06979        -0.00466
C           3.12032        -1.22223        -0.23925
N           2.72507        -1.95673        -1.22383
C           3.37918        -3.23289        -1.51588
C           4.27968        -3.79114        -0.44194
N           4.67116        -5.11179        -0.49309
N           4.25533        -5.77660        -1.46175
C           4.70944        -3.00165         0.55562
C           4.30682        -1.55918         0.67668
C           3.96750        -1.25464         2.13646
H           0.52007         1.00234         0.19066
H           0.49240        -0.81895        -0.16505
H           2.99974         0.95728         0.18146
H           3.95909        -3.12182        -2.43946
H           2.57214        -3.94691        -1.71245
H           4.56191        -6.75624        -1.42961
H           5.37943        -3.41270         1.30661
H           5.15474        -0.93483         0.36660
H           3.09902        -1.83635         2.46630
H           3.72962        -0.19570         2.28149
H           4.80900        -1.48741         2.79763

