%chk=CdCCNOC1CCdCNdCNdCC2dNC2dC1OO.chk
%NProcShared=20
# opt freq b3lyp/6-31g(2df,p)

Title Card Required 

0  1
C           1.00752         0.07183         0.02722
C           2.36267         0.04602         0.05274
C           3.25912        -0.87226         0.98441
N           4.92661        -0.64435         0.74304
O           6.14579        -0.93717         1.97293
C           7.98126        -1.12845         1.72547
C           7.64177        -2.37993         2.47548
C           8.96199        -2.67983         2.03410
C           9.74489        -3.16881         2.95768
N          11.01309        -3.28334         2.60501
C          11.80851        -3.81454         3.43606
N          13.00806        -4.21614         2.89417
C          13.95788        -3.59971         3.50315
C          13.34097        -2.03158         2.66857
N          12.74192        -1.30519         3.47547
C          11.66958        -1.05835         2.42923
C           9.84085        -0.56197         2.24971
O           9.31523         0.84592         1.41165
O           7.57104         1.48880         1.65459
H           0.43779         0.73085        -0.63976
H           0.40931        -0.56970         0.66998
H           2.86478         0.72073        -0.63497
H           2.90541        -1.89101         0.73372
H           2.90690        -0.62089         1.99881
H           4.87861         0.34268         1.00124
H           7.69642        -1.30697         0.61295
H           7.04887        -3.20714         2.06537
H           7.19586        -2.06091         3.45432
H           9.41780        -2.17804         1.08725
H           9.31743        -3.59027         3.83424
H          11.55484        -4.10861         4.44781
H          14.00492        -4.19151         4.56122
H           7.14370         2.19409         0.93220

