%chk=CdCC1dC2CdCCdC2CdCCdCCdC1.chk
%NProcShared=20
# opt freq b3lyp/6-31g(2df,p)

Title Card Required 

0  1
C           0.80851        -0.05909        -0.01317
C           2.08855        -0.18467        -0.43227
C           3.49605         0.18479         0.25892
C           4.55761        -0.51839         0.86029
C           5.26638        -0.72813         2.20280
C           6.61505        -0.61199         1.99106
C           6.87805        -0.18637         0.64421
C           5.67606        -0.33061        -0.04913
C           5.45296        -0.44165        -1.41094
C           6.15539         0.09008        -2.45906
C           5.26540         0.50906        -3.56670
C           5.35304         1.80608        -3.28550
C           4.36821         2.09822        -2.01019
C           3.94695         1.56657        -0.69384
H           0.08839         0.34472        -0.76036
H           0.43035        -0.22747         0.98649
H           2.10072         0.25835        -1.44920
H           4.88781        -1.13354         3.14198
H           7.46147        -0.88775         2.62877
H           7.76071         0.01259         0.09101
H           4.40499        -0.57835        -1.68267
H           7.01397         0.70753        -2.13970
H           4.16721         0.33635        -3.68110
H           6.38972         2.08596        -3.58650
H           3.75695         2.49104        -2.87004
H           3.09228         1.70848         0.00668

