%chk=CdCNC1dCqNrCdCSNdN1.chk
%NProcShared=20
# opt freq b3lyp/6-31g(2df,p)

Title Card Required 

0  1
C           1.00473        -0.06692         0.14382
C           2.33722        -0.09754         0.19128
N           3.15809         0.61418         1.02758
C           4.57135         0.65840         1.04464
C           5.20105         0.91890        -0.14120
N           4.46865         1.23907        -1.27579
C           6.61596         0.95829        -0.38684
C           7.67180         0.79382         0.40994
S           7.76699         0.44782         2.06283
N           6.28081         0.42030         2.72513
N           5.13762         0.50552         2.28368
H           0.48182        -0.61705        -0.63163
H           0.42214         0.52783         0.83532
H           2.87757        -0.70248        -0.53780
H           2.74413         0.98008         1.87899
H           3.46657         1.34961        -1.16373
H           4.87735         1.31862        -2.19286
H           6.87301         1.15443        -1.42703
H           8.64007         0.88185        -0.07536

