%chk=CdCqCrCNNdc1cc1[N]C1CNCCdCCdCC2dCC21.chk
%NProcShared=20
# opt freq b3lyp/6-31g(2df,p)

Title Card Required 

0  2
C           1.06338         0.06324        -0.05612
C           2.40031         0.06239        -0.05680
C           3.13997        -1.23365        -0.07222
C           3.16705         1.35176        -0.04157
N           4.56168         1.14255        -0.04589
N           5.43864         2.09652        -0.04393
C           6.49779         1.44011         0.05219
C           7.79015         1.69395         0.06839
C           7.52159         0.03561         0.20102
N           6.74190        -1.62432         0.50795
C           6.72077        -3.64355         0.56114
C           5.37122        -3.31595        -0.04707
N           5.72746        -4.48180        -0.69288
C           4.64353        -5.28129        -0.42785
C           5.22469        -6.47365        -1.02740
C           4.42598        -7.54269        -1.04212
C           5.33800        -8.80046        -1.33870
C           4.95675        -9.13715        -0.14515
C           6.12314        -7.74352         0.62485
C           5.43766        -7.46853         1.65972
C           6.31733        -5.86369         1.15544
H           0.51161        -0.86704        -0.06699
H           0.51294         0.99239        -0.04533
H           2.47372        -2.09820        -0.08133
H           3.76316        -1.30730         0.82367
H           3.76729        -1.29094        -0.96714
H           2.90885         1.92729         0.85145
H           2.90857         1.94783        -0.92059
H           4.95143         0.19057        -0.04857
H           8.13757         3.03401        -0.06525
H           7.39768        -3.31920        -0.48038
H           5.14428        -2.73802        -0.96943
H           4.94745        -2.86538         0.86484
H           6.43983        -5.04221        -0.26387
H           4.06768        -4.91289        -1.20445
H           4.31813        -5.16678         0.65141
H           6.41497        -6.69463        -0.95036
H           3.50906        -7.49749        -0.26430
H           6.39236        -9.28889        -0.88050
H           3.70727        -9.62075        -0.13334
H           5.18497        -8.93639         1.57694
H           7.22053        -5.71190         1.70697

