%chk=CdCqCrC1dCCdC2CdNNdCCdCCdC21.chk
%NProcShared=20
# opt freq b3lyp/6-31g(2df,p)

Title Card Required 

0  1
C           1.23879        -0.12645         0.08145
C           2.59441        -0.31522         0.22975
C           3.23309         0.92133         0.89750
C           3.41880        -1.60248        -0.45355
C           3.07569        -1.62845        -1.76113
C           3.88450        -2.59381        -2.35842
C           4.74364        -2.99059        -1.46835
C           5.93479        -3.53241        -1.98649
N           5.80051        -4.40769        -2.89626
N           7.09626        -4.69864        -2.87572
C           7.34068        -5.92276        -2.73368
C           7.88001        -6.07043        -1.29582
C           6.89537        -5.56111        -0.33399
C           5.62554        -4.19909         0.17364
C           4.66390        -2.90962        -0.00939
H           0.66840         0.70274         0.55179
H           0.56799        -0.76332        -0.48510
H           2.49789         1.61615         1.37378
H           3.79480         1.58497         0.21984
H           3.86544         0.56577         1.69796
H           2.41332        -1.01441        -2.38647
H           3.89538        -2.91139        -3.38747
H           6.87906        -3.41403        -1.30460
H           6.80466        -6.62901        -3.42883
H           8.58713        -7.02435        -1.22436
H           6.45371        -6.51923        -0.76790
H           6.12581        -3.66726         1.03940

