%chk=CdCSC[SH]1SC2dCCC1CCdC2.chk
%NProcShared=20
# opt freq b3lyp/6-31g(2df,p)

Title Card Required 

0  1
C           1.19854        -0.11678        -0.01192
C           2.51684        -0.10411        -0.01065
S           3.57235        -1.35163        -0.66124
C           5.27092        -0.69815        -0.25896
S           6.65742        -1.85663        -0.58527
S           8.70173        -0.38912        -0.00931
C          10.03027        -0.72881        -1.59919
C           9.40975        -0.60349        -2.79866
C           8.00739        -0.97377        -2.54692
C           7.95523        -2.24298        -1.61894
C           8.71853        -3.46807        -2.07318
C          10.21096        -3.25976        -1.72730
C          10.76657        -2.05271        -1.50575
H           0.62643         0.71342         0.43117
H           0.56569        -0.91660        -0.42939
H           3.01382         0.76610         0.44023
H           5.36774        -0.71674         0.84309
H           5.35527         0.29874        -0.67703
H           6.09826        -2.61005        -1.61375
H           9.41126         0.31830        -3.39619
H           7.29887        -1.03277        -3.36334
H           7.63401        -0.02069        -2.10489
H           8.32936        -2.48953        -0.53216
H           8.58594        -3.53724        -3.15090
H           8.39591        -4.42250        -1.63193
H          10.82050        -4.16283        -1.57080
H          11.84848        -1.99062        -1.33205

