%chk=CN1CCdc2ccccccnnncccc2dN1.chk
%NProcShared=20
# opt freq b3lyp/6-31g(2df,p)

Title Card Required 

0  1
C           2.49577        -0.19617         0.38266
N           4.93153        -0.77652         1.19273
C           3.21964        -0.83352         1.27151
C           5.37882        -1.00688         1.51348
C           7.24106        -1.56214         2.29083
C           8.30902        -0.78915         1.20926
C           8.42818        -1.76534         2.57349
C           9.69615        -1.15746         1.72317
C          10.98931        -1.95461         2.83547
C          11.81773        -1.55653         2.27851
C          11.48500        -2.16618         3.12717
N          13.58502        -1.97215         2.85786
N          13.85298        -2.49551         3.58659
N          15.84349        -2.65786         3.81378
C          16.89297        -3.32654         4.74600
C          14.87386        -2.95392         4.22811
C          12.47760        -2.70626         3.87965
C           9.56844        -2.06353         2.98552
N           7.28594        -1.50217         2.19169
H           0.75982        -0.52242         0.83740
H           0.90446        -0.34718        -0.72060
H           0.90446         0.89732         0.17226
H           2.86209        -1.76630         1.00693
H           2.86208        -0.28449         2.07012
H           5.25578         0.02016         0.08086
H           7.34619        -0.37344         0.62974
H           8.73395        -2.63188         3.77818
H           9.84974        -0.64225         1.00441
H          10.20813        -2.81182         4.02874
H          12.12652        -1.18181         1.75660
H          11.74832        -3.25629         4.64727
H          16.61693        -4.07232         5.78534
H          16.97172        -2.87593         4.11762
H          14.05256        -3.32218         4.74037

