%chk=CN1CCdCC2dCqCCdNrCdC21.chk
%NProcShared=20
# opt freq b3lyp/6-31g(2df,p)

Title Card Required 

0  1
C           0.95837         0.00853        -0.09771
N           2.37378        -0.02183        -0.10970
C           3.05627        -1.25161        -0.08362
C           4.53603        -1.20071        -0.10038
C           5.22952        -0.06000        -0.10037
C           4.44145         1.16251        -0.09530
C           4.43653         2.47001        -0.09660
C           4.35889         3.87178        -0.09174
C           5.32073         4.93211        -0.09196
N           4.92343         6.16134        -0.09043
C           2.82474         2.31665        -0.09266
C           3.04481         1.05121        -0.09862
H           0.59404        -1.01112        -0.09788
H           0.60076         0.52788        -0.98787
H           0.60315         0.52580         0.79552
H           2.75243        -1.75881        -0.98566
H           2.81010        -1.65935         0.88162
H           5.00302        -2.16673        -0.08731
H           6.29754        -0.05776        -0.10119
H           3.75492         3.95453         0.82035
H           3.75428         3.95648        -1.00536
H           6.38523         4.69330        -0.09257
H           3.89647         6.25931        -0.09001
H           1.77928         2.84044        -0.09315

