%chk=CNC1CNCdNCdCCqN2CdNC2rdNCdCC1dO.chk
%NProcShared=20
# opt freq b3lyp/6-31g(2df,p)

Title Card Required 

0  1
C           1.34347        -0.46293        -0.23226
N           3.11669        -1.17858        -0.53109
C           4.40036        -2.65289        -1.23298
C           4.93942        -1.58744        -0.36011
N           5.31914        -2.90556        -0.00354
C           6.62595        -2.95033        -0.17916
N           7.11234        -4.09763        -0.04701
C           8.35398        -4.29804        -0.39695
C           8.71257        -5.55666        -0.12205
C          10.20070        -5.74433        -0.45427
N          11.18699        -4.82983        -0.88098
C          12.33485        -4.47148        -1.50068
N          12.51451        -3.47802        -0.71305
C          11.30446        -3.79326         0.00153
N          10.12799        -6.97062        -0.83080
C           9.58139        -6.24645        -2.14102
C           7.86870        -5.40330        -2.21566
C           6.05325        -4.22089        -1.84629
O           4.87953        -4.57581        -2.30252
H           0.87663         0.78946         0.07512
H           0.72813        -0.82063         0.67958
H           0.66891        -0.49169        -1.09219
H           3.15404        -0.33499         0.44087
H           3.38330        -2.79746        -0.25218
H           4.82636        -1.13218         0.67680
H           4.94923        -0.75305        -1.13346
H           4.61434        -3.95534        -0.26198
H           7.13509        -2.06108        -0.51333
H           9.00083        -3.54949        -0.79484
H           7.88938        -6.50415        -0.54258
H          12.89916        -4.87367        -2.38853
H          10.50823        -3.07382        -0.08270
H          11.30243        -4.06970         1.05470
H          11.08996        -6.57431        -1.92300
H           8.61586        -6.76425        -2.32236

