%chk=CNC1dCdCCdCCdCCdCCdCCdC1C.chk
%NProcShared=20
# opt freq b3lyp/6-31g(2df,p)

Title Card Required 

0  1
C           1.15675         0.05694         0.01444
N           3.12259        -0.13055        -0.01691
C           4.93782        -0.67003         0.61809
C           4.92317         0.90010         1.01618
C           6.13195         0.63354         1.09559
C           6.93489         0.01159        -0.11365
C           8.15752        -0.28254         0.33811
C           8.78803        -1.04075        -0.55570
C          10.10848        -1.14745        -0.33239
C          10.48008        -1.78942        -1.57328
C          11.89620        -2.13008        -1.31740
C          12.38444        -3.31794        -1.89484
C          11.16503        -3.11336        -0.45566
C           8.84173        -2.68096         0.27963
C           6.83977        -1.89524         0.69283
C           4.57226        -0.94545         1.40239
H           0.68122        -0.26848        -0.96883
H           0.68588         1.09617         0.13890
H           0.66409        -0.55884         0.76992
H           3.02181        -0.24140        -0.92982
H           6.52032         1.32055         1.72795
H           6.10068        -1.02288        -0.49557
H           8.64131         0.28627         1.00768
H           8.15719        -2.17506        -1.05486
H          10.81640        -0.73219         0.28002
H          10.24248        -3.15694        -1.87345
H          12.79778        -1.79587        -0.57623
H          12.49517        -4.42330        -2.43008
H          12.97311        -3.13053        -0.86534
H          10.30959        -3.40862        -0.40526
H           3.23825         0.00919         2.10372
H           2.87441        -0.53977         1.73576
H           3.15228         0.17590         1.49599

