%chk=CNC1dCCdCNqCrCqd[SH]COCrCdC1.chk
%NProcShared=20
# opt freq b3lyp/6-31g(2df,p)

Title Card Required 

0  1
C           1.11934        -0.23914        -0.10193
N           2.56168        -0.53500        -0.40161
C           3.65532        -1.41990        -1.31345
C           4.61220        -0.76562        -0.67863
C           5.74716        -1.45449        -0.64182
C           6.69443        -1.45594        -1.50725
N           6.82938        -3.06023        -2.17870
C           6.28519        -4.30246        -3.82558
C           8.24833        -2.72505        -2.77012
S           9.67400        -1.93710        -1.63011
C           8.87102        -0.76573        -0.60802
O           9.43324         0.16038         0.27549
C           8.32626         0.84257         0.92999
C           6.31070        -2.76793        -2.87577
C           4.57845        -2.63509        -2.51366
H           0.84396         0.57112         0.67165
H           0.62513        -1.11109         0.31601
H           0.62542         0.13795        -0.99132
H           3.06395         0.15359         0.26868
H           4.78673        -0.01174         0.02682
H           5.50760        -1.64344        -1.60828
H           7.11837        -0.91066        -0.74476
H           5.22486        -4.26878        -3.92244
H           6.81656        -5.14728        -3.41971
H           6.80313        -3.79320        -4.80212
H          10.33894        -1.08838        -2.40936
H           8.33674        -1.45509         0.10297
H           8.35108        -0.08344        -1.34054
H           8.79951         1.54549         1.60170
H           7.67970         0.16279         1.51380
H           7.67836         1.39463         0.22524
H           7.62238        -3.55782        -3.43422
H           3.57031        -3.04583        -2.75075

