%chk=CNCdCc1c2ccccccqdOroc1CdC2.chk
%NProcShared=20
# opt freq b3lyp/6-31g(2df,p)

Title Card Required 

0  1
C           1.13877         0.03008         0.10093
N           2.68662        -0.01775         0.17878
C           3.80934        -0.93015         1.09404
C           5.45529        -0.98198         0.94732
C           7.35288        -1.69996         1.26369
C           6.88183        -1.88942         2.48248
C           7.32464        -2.83611         3.24100
C           8.61295        -3.07007         3.39477
C           9.39852        -3.75579         4.09898
C          10.58815        -3.58045         3.49057
C          11.51002        -3.92607         4.31350
C          12.12312        -2.85863         3.38991
O          13.39853        -3.16606         3.62305
O          10.93572        -1.68019         2.45054
C           9.11930        -1.44963         1.53789
C           8.10374        -0.18911         0.70465
C           7.97783        -0.77769         1.92235
H           0.73410         0.74699        -0.67186
H           0.69673         0.36452         1.04555
H           0.70095        -0.93890        -0.16782
H           3.06368         0.61572        -0.53208
H           2.91749        -1.43677         1.64018
H           5.18084        -0.14968         0.26473
H           6.73306        -3.41489         3.82440
H           9.22320        -2.37615         3.00495
H           8.99605        -4.34761         4.80835
H          10.41543        -3.14838         2.26184
H          11.40965        -4.70802         5.23992
H           7.00826        -0.00925         0.15339
H           8.67169        -0.38524         0.61516

