%chk=CNdC1NdCCdCCdCqNdOrNdC1CS.chk
%NProcShared=20
# opt freq b3lyp/6-31g(2df,p)

Title Card Required 

0  1
C           1.10797         0.04580         0.03586
N           2.76132        -0.17229         0.39854
C           3.64719        -0.81939         1.39947
N           4.69120        -0.43485         0.81076
C           5.55739        -0.74037         1.60113
C           6.84178        -0.64454         1.36558
C           7.05128        -1.05638         2.64298
C           8.40227        -1.41445         2.81355
C           7.83802        -2.37183         3.58237
N           8.64591        -2.66160         4.77736
O           7.70048        -3.01822         5.45201
N           5.85957        -2.75677         3.29941
C           4.39022        -2.11441         2.85970
C           2.31561        -1.60936         2.64661
S           0.66822        -2.00667         3.66156
H           0.70513         0.59173        -0.89628
H           0.62803         0.62615         0.84291
H           0.62767        -0.93058        -0.05687
H           5.38026        -0.88078         2.61874
H           7.71101        -0.46507         0.85797
H           6.03803        -1.26479         3.80846
H           9.38494        -1.17346         2.23353
H           1.46827        -1.74186         1.62542
H           1.50446        -0.47393         2.36820
H           0.67776        -3.31554         3.56929

