%chk=CNdC1CdCdCdCC2dCdCCdC21.chk
%NProcShared=20
# opt freq b3lyp/6-31g(2df,p)

Title Card Required 

0  1
C           1.83953        -0.52614        -0.71339
N           3.44585        -1.25290        -1.71758
C           4.63978        -2.10761        -2.82393
C           5.02749        -1.05335        -1.27832
C           6.18169        -1.48917        -1.28051
C           6.84424        -2.35521        -1.72421
C           7.23832        -3.35612        -2.47701
C           7.96817        -2.80977        -3.99310
C           8.64837        -3.65948        -4.80920
C           9.32857        -4.50918        -5.62529
C           7.45079        -4.25658        -4.92011
C           6.20138        -2.87469        -3.97268
H           1.42420         0.48114         0.28228
H           1.04860        -1.14999         0.00349
H           1.01943         0.12182        -1.28569
H           5.13095        -0.20883        -0.47366
H           6.49963        -4.34417        -2.76886
H           9.91980        -4.00597        -6.38529
H           7.60857        -5.46197        -4.60023

