%chk=CNN1CSCqdSrCdCdCdCCdC1S.chk
%NProcShared=20
# opt freq b3lyp/6-31g(2df,p)

Title Card Required 

0  1
C           1.22108        -0.43097        -0.06672
N           2.90489        -1.21079        -0.07911
N           4.06894        -2.88499        -0.47021
C           4.81075        -1.68115        -0.09568
S           5.45046        -2.73428         1.00060
C           6.80782        -3.35977         0.33632
S           7.84189        -2.17690        -0.16294
C           6.88828        -4.79377         1.04696
C           8.18700        -4.80020         1.03909
C           9.22612        -5.00607         0.54243
C           9.00477        -5.56781        -0.61796
C           7.05509        -5.29879        -0.98756
C           5.26618        -4.36641        -0.83970
S           3.07937        -4.46736        -0.33900
H           0.84047         0.80972        -0.02826
H           0.68269        -0.66710         0.87387
H           0.65824        -0.67938        -0.94673
H           3.06427        -0.14584         0.62506
H           4.80642        -1.11563         0.88194
H           4.95118        -1.16733        -1.02726
H           6.20430        -5.89804         0.51253
H          10.48862        -5.53742        -0.22734
H           8.00161        -6.43162        -0.71252
H           1.46046        -3.67063        -0.15713

