%chk=CNNC1dCCdCCdCCdC1.chk
%NProcShared=20
# opt freq b3lyp/6-31g(2df,p)

Title Card Required 

0  1
C           1.09367        -0.05625        -0.08153
N           2.55129        -0.04282        -0.05167
N           3.08568        -0.44439        -1.29296
C           4.46977        -0.56633        -1.51370
C           5.20871        -1.16532        -0.56652
C           6.54031        -1.64114        -0.37727
C           7.65977        -1.68533        -1.09826
C           8.04169        -1.16037        -2.36445
C           7.41523        -0.42582        -3.28400
C           6.08025         0.06239        -3.44966
C           4.92060        -0.02337        -2.78336
H           0.71588         0.25881         0.89762
H           0.70409        -1.05980        -0.28094
H           0.70179         0.64277        -0.82608
H           2.84884        -0.68118         0.68787
H           2.48809        -0.53402        -2.11467
H           4.64716        -1.44515         0.32325
H           6.62827        -2.12755         0.59775
H           8.48601        -2.21108        -0.61340
H           9.08437        -1.39490        -2.59386
H           8.05384        -0.12922        -4.12058
H           6.01537         0.63978        -4.37802
H           4.10968         0.49884        -3.30027

