%chk=CNqCrC1dCCdCc2ccccc2COCCN[N]CdC1.chk
%NProcShared=20
# opt freq b3lyp/6-31g(2df,p)

Title Card Required 

0  2
C           1.35694        -0.16973         0.10345
N           2.79959         0.11936         0.20795
C           3.10597         1.50332         0.54361
C           3.87625        -0.81590         0.39343
C           4.71188        -1.01278        -0.66878
C           5.31040        -2.28813        -1.08706
C           6.66279        -2.40030        -1.27119
C           7.40312        -3.62065        -1.63380
C           7.03903        -4.27886        -2.81774
C           7.61043        -5.50337        -3.16279
C           8.64409        -6.03404        -2.39894
C           9.11877        -5.32863        -1.30226
C           8.48672        -4.14883        -0.87237
C           9.02054        -3.60645         0.43606
O           8.35776        -2.44187         0.76042
C           8.68347        -1.84153         2.00187
C           7.66368        -0.74438         1.99316
N           7.42114         0.06960         3.15735
N           6.24594         0.93817         2.80620
C           5.08905         0.21980         2.59172
C           4.52268        -0.76743         1.80346
H           0.76196         0.67455         0.49066
H           1.02659        -1.04264         0.67500
H           1.01836        -0.27676        -0.93822
H           2.22510         2.14014         0.62311
H           3.79784         1.90538        -0.19859
H           3.55568         1.55540         1.52471
H           5.51403        -0.27056        -0.63645
H           4.66122        -3.12878        -1.28633
H           7.27458        -1.53787        -1.04554
H           6.28658        -3.83953        -3.47007
H           7.24173        -6.04575        -4.02708
H           9.08083        -6.99420        -2.64964
H           9.96989        -5.71310        -0.74267
H          10.08080        -3.36110         0.34140
H           8.86281        -4.34754         1.22682
H           9.71165        -1.47924         1.98500
H           8.50980        -2.53830         2.82837
H           6.75947        -1.31987         1.82436
H           7.81332        -0.10064         1.11489
H           8.23865         0.65720         3.33769
H           4.43031         0.38774         3.44258
H           3.77421        -1.32347         2.36222

