%chk=COC1dCCdCCqdNrCqNqCrCdCNdOrCdC1.chk
%NProcShared=20
# opt freq b3lyp/6-31g(2df,p)

Title Card Required 

0  1
C           1.33686        -0.10759        -0.31941
O           2.65904        -0.66418        -0.92313
C           3.87246        -0.39799        -1.84017
C           4.86228        -0.11356        -0.97507
C           5.86762         0.12005        -1.75785
C           7.13945         0.30794        -2.19308
C           7.19831         0.12747        -3.92215
N           6.56950         0.13099        -5.13541
C           8.20887        -0.91174        -3.83843
N           9.11280        -1.81205        -2.89448
C          10.16004        -2.69333        -3.53989
C           9.13892        -1.87038        -1.50342
C           9.59455        -2.78219        -0.63415
N           9.27139        -2.69124         0.65796
O           9.64490        -3.64736         1.34342
C           6.39901        -1.60651        -3.70700
C           4.78201        -1.27254        -3.24831
H           1.15295         0.04477         0.80415
H           0.69414        -0.99370        -0.45073
H           0.84719         0.76509        -0.78357
H           4.83879        -0.05787         0.09630
H           5.53425         0.44425        -2.70997
H           7.75693         0.12325        -1.37586
H           5.70673        -0.50106        -5.33553
H           8.82692         0.07725        -3.58389
H          10.38280        -2.50409        -4.59249
H           9.81995        -3.72904        -3.42894
H          11.14711        -2.67928        -3.01483
H           8.74318        -1.04360        -0.98175
H          10.15763        -3.62643        -0.99680
H           6.94253        -1.92923        -4.75261
H           3.87557        -1.06197        -3.92000

