%chk=COC1dCCdCCC[SH]dc2ccccccoc2dC1.chk
%NProcShared=20
# opt freq b3lyp/6-31g(2df,p)

Title Card Required 

0  1
C           1.64548         0.34555         0.19829
O           3.67748         1.02864         0.84863
C           5.65160         1.79570         1.80405
C           5.71210         1.36403         0.61978
C           6.29524         3.09846         1.21273
C           7.73363         2.54585         0.76936
C           7.68605         3.95011         2.24465
C           8.87951         3.30420         1.64331
S           9.56383         4.50150         3.04298
C          11.18471         4.28792         2.91094
C          11.93228         5.50023         3.76685
C          12.19325         4.52819         3.36902
C          13.63951         5.47335         3.85217
C          15.30865         4.91921         3.41575
C          16.08513         5.80327         4.07933
C          14.81405         4.48828         3.23434
O          12.62025         3.33210         2.66017
C          10.24055         2.92398         2.67679
C           7.93003         2.21610         2.52977
H           0.76231        -0.70911        -0.58675
H           0.71791         1.04764        -0.42029
H           0.71549         0.01917         1.01777
H           5.07849         0.44804         0.18278
H           5.55962         3.84318         2.51224
H           7.34485         1.38241         0.84329
H           7.12771         3.36351         3.43886
H           7.12901         4.53326         1.72372
H           9.37121         3.25307         0.84414
H           9.26150         1.88716         2.42853
H           9.44421         4.21459         4.30890
H          11.76569         6.13622         4.26709
H          13.65551         4.04406         2.83253
H          14.21365         6.44486         4.51808
H          16.54897         4.16643         2.88976
H          16.58916         7.02789         4.93396
H          16.62922         5.08203         3.55812
H           6.18628         2.19670         2.41899

