%chk=COC1dC2CdCCdCCqdCd[SH]CdC2rOCCS1.chk
%NProcShared=20
# opt freq b3lyp/6-31g(2df,p)

Title Card Required 

0  1
C           1.69889         0.52152        -0.38978
O           3.43589         1.52111        -0.83812
C           4.70766         2.79018        -1.66983
C           5.24742         1.60108        -2.12252
C           5.93935         1.99930        -0.83988
C           7.28034         2.04969        -0.83828
C           7.94902         2.43967        -2.43902
C           9.11271         2.38346        -2.90999
C           9.09055         3.40775        -4.22461
C           8.65732         4.70670        -4.46490
S           7.32472         5.37317        -4.87263
C           6.57943         3.18397        -4.62600
C           6.17077         1.82488        -3.64938
O          10.31559         3.36852        -3.91122
C          10.65391         4.92817        -4.10252
C           9.36925         4.64911        -2.47115
S           6.86604         4.30904        -1.78636
H           1.06215        -0.55014         0.46186
H           0.87547        -0.01499        -1.18659
H           0.84407         1.13329         0.18308
H           6.30442         2.43407        -1.74540
H           7.43429         1.04242        -0.98104
H           7.62264         3.50229        -3.20405
H           9.56169         2.21445        -1.90155
H           7.92188         6.80909        -4.56042
H           7.46867         3.60350        -5.51466
H           6.30702         0.87114        -2.54728
H          11.26175         5.95051        -3.85167
H          11.19464         4.68674        -5.20221
H          10.94076         4.70114        -2.39834
H          10.91268         4.35197        -2.97937

