%chk=COCCNC1NNC2dCCdNCdCCdNCdC1NdC2OCdO.chk
%NProcShared=20
# opt freq b3lyp/6-31g(2df,p)

Title Card Required 

0  1
C           0.95810         0.08332         0.01940
O           2.38395         0.08092         0.00792
C           2.90164        -0.68907        -1.08952
C           4.46804        -0.67779        -1.04658
N           5.08641        -1.45601        -2.10589
C           6.51520        -1.89838        -2.12109
N           7.00908        -1.42399        -3.45375
N           8.38899        -1.48641        -3.72996
C           9.30944        -1.95420        -2.79478
C           9.62326        -3.26257        -2.85538
C          10.45758        -3.93693        -1.87131
N          10.92926        -5.13256        -2.04998
C          11.41937        -5.66207        -0.87282
C          10.61745        -6.59872        -0.34947
C           9.60065        -5.51300         0.48048
N           8.73728        -4.62572        -0.13836
C           8.21824        -3.11709         0.00178
C           7.60267        -2.03730        -0.80566
N           8.39528        -0.85971        -0.76596
C           9.44424        -1.11764        -1.50679
O          10.68979        -0.95685        -0.99953
C          10.79857        -0.39145         0.25703
O          11.79235        -0.38059         0.90878
H           0.61013         0.67393         0.87286
H           0.57439        -0.93641         0.12314
H           0.57119         0.53762        -0.89797
H           2.52185        -0.25207        -2.02319
H           2.51616        -1.71359        -1.00695
H           4.76449        -1.08196        -0.07991
H           4.78178         0.36950        -1.10455
H           4.74522        -1.15729        -3.02136
H           6.36053        -2.95592        -2.23305
H           6.54941        -0.59537        -3.83773
H           8.78312        -0.75571        -4.32870
H           9.16521        -3.92242        -3.59184
H          10.60297        -3.39781        -0.91515
H          11.75519        -4.93079        -0.12652
H          10.44715        -7.44256        -1.04278
H          10.16217        -5.53289         1.49243
H           7.63567        -2.91953         0.90224
H           9.86436         0.11690         0.61662

