%chk=CONqCrCCqCrNC1dCCdCNdCCdCC2dNN12.chk
%NProcShared=20
# opt freq b3lyp/6-31g(2df,p)

Title Card Required 

0  1
C           0.95246        -0.04371        -0.06909
O           2.44701        -0.02773        -0.03666
N           2.99146         1.04046         0.98982
C           2.30057         0.46216         2.14840
C           4.88724         1.22903         1.22258
C           5.98507         2.53664         2.50162
C           4.73112         1.67223         3.44685
N           7.81261         3.32939         3.36013
C           9.38977         4.35698         4.27482
C           9.22606         3.18756         3.14503
C           9.30349         4.21864         4.13776
C          10.71196         3.45155         3.39724
N          11.60343         4.09085         3.98722
C          12.80666         4.04249         3.98428
C          13.79604         4.75305         4.60822
C          14.04761         5.83467         5.34243
C          12.21391         6.38580         5.60822
N          12.57912         5.45400         6.38542
N          10.93722         5.23253         5.38630
H           0.57211        -0.78720        -0.77722
H           0.56290         0.94423        -0.32282
H           0.51852        -0.35506         0.88947
H           1.20274         0.50075         2.20989
H           2.32302         1.19941         2.87523
H           2.67932        -0.49779         2.49254
H           4.81952         1.27180         0.03492
H           4.82158         0.04295         1.27485
H           5.02556         3.12852         1.85087
H           4.72999         0.56060         3.55941
H           3.61536         1.85222         3.40540
H           4.70278         2.33845         4.22403
H           7.81235         2.49324         2.47635
H           9.28014         2.36064         2.34965
H           7.91254         4.56865         4.50892
H          11.13321         2.73953         2.71602
H          13.29509         3.44056         3.40708
H          12.82639         4.94684         4.81557
H          15.08807         5.07908         4.97071

