%chk=COOC1dCdCCdCC2dCqNdNO1rSCdCCdC2.chk
%NProcShared=20
# opt freq b3lyp/6-31g(2df,p)

Title Card Required 

0  1
C           1.11718         0.05453        -0.17733
O           2.51512         0.05443        -0.53644
O           2.55333        -0.24733        -1.99987
C           3.86812        -0.01257        -2.49462
C           4.52826        -1.06944        -2.76700
C           5.10989        -1.78784        -3.74060
C           4.28822        -1.76282        -4.92337
C           4.73628        -1.60103        -6.17490
C           3.75452        -1.21952        -7.19743
C           3.03415        -0.04862        -6.96720
N           3.41409         0.91670        -5.85781
N           3.02492         0.87823        -4.61486
O           4.11562         0.92492        -3.59852
S           1.94796         0.60490        -8.24308
C           1.58705        -0.43038        -9.57856
C           2.02890        -1.61589        -9.99343
C           3.01713        -2.44238        -9.40441
C           3.70925        -2.24326        -8.28057
H           0.94743         0.33678         0.87597
H           0.68838        -0.94375        -0.31592
H           0.58398         0.77795        -0.79888
H           6.16686        -1.62739        -3.91262
H           3.22143        -1.57481        -4.76063
H           5.77281        -1.72614        -6.47014
H           0.84042        -0.01044       -10.25798
H           1.60536        -2.03162       -10.91875
H           3.20068        -3.36638        -9.96779
H           4.39612        -3.08084        -8.10054

