%chk=CSC1dCCdc2cccnc2dCCdCCdCCdC1.chk
%NProcShared=20
# opt freq b3lyp/6-31g(2df,p)

Title Card Required 

0  1
C           0.73873        -0.14005        -0.11075
S           2.40565        -0.58735        -0.28870
C           2.74681        -2.23822        -1.02928
C           4.13917        -2.09449        -0.98421
C           5.20509        -2.89447        -1.46933
C           6.53528        -3.12899        -1.52503
C           7.52351        -2.21636        -0.95472
C           8.76259        -2.66857        -0.72029
C           9.14799        -3.87948        -1.47253
N           8.37693        -4.67084        -2.13575
C           7.01784        -4.45436        -2.10570
C           6.29345        -5.51361        -2.53501
C           4.89789        -5.68220        -2.50012
C           3.97262        -6.52467        -2.93726
C           2.70998        -5.89638        -2.64666
C           1.43418        -5.92144        -2.65348
C           0.91214        -4.55089        -2.06957
C           1.46619        -3.30701        -1.52716
H           0.68184         0.86480         0.33868
H           0.28373        -0.84601         0.57242
H           0.29335        -0.09762        -1.09716
H           4.63960        -1.20035        -0.55439
H           4.58307        -3.44335        -2.09864
H           7.23006        -1.21133        -0.67309
H           9.51040        -2.15653        -0.13333
H          10.23169        -4.07073        -1.53008
H           6.77034        -6.39682        -2.91555
H           4.47577        -4.97543        -1.83096
H           4.17037        -7.44573        -3.44206
H           2.89304        -4.91456        -2.25628
H           0.92669        -6.82675        -3.06461
H          -0.18072        -4.71778        -2.16630
H           0.61455        -2.66419        -1.28758

