%chk=CtCC1CdNCdCCdCSCdCCdCqNrS1.chk
%NProcShared=20
# opt freq b3lyp/6-31g(2df,p)

Title Card Required 

0  1
C           1.03564         0.07160         0.06003
C           2.33950         0.07160         0.06003
C           3.85950         0.07160         0.06003
C           4.28658         0.81116         1.30980
N           5.44352         0.84408         1.53590
C           5.78120         1.47942         2.96791
C           7.24298         1.32570         3.66310
C           7.85786         2.49948         4.19495
C           9.02913         2.50838         4.63242
S           9.71886         3.54691         5.91567
C          11.33943         3.11047         6.17861
C          12.14124         3.99426         6.73896
C          11.65387         3.43195         4.63403
C           9.91678         2.72509         3.19860
N          12.11140         3.55589         4.62663
S           7.12090         1.49464         1.59588
H           0.00128         0.07158         0.05997
H           4.26127        -0.93204         0.09939
H           3.65412         1.23067         1.98555
H           5.35545         2.15872         3.42598
H           8.30582         0.70459         2.67970
H           7.27980         2.96589         4.83413
H           9.59041         1.59791         3.67513
H          12.22990         2.18205         5.13959
H          11.86195         4.65938         7.60817
H          13.49747         3.17532         5.30596
H          13.44119         4.07216         5.96636
H          13.70150         4.07347         5.68991

