%chk=Nc1ccc2c[c][nH]cc3ccccc3ccccc-2cc1.chk
%NProcShared=20
# opt freq b3lyp/6-31g(2df,p)

Title Card Required 

0  2
N           1.05387         0.07225         0.06258
C           2.43307         0.00340         0.06298
C           2.92924        -1.22934         0.05636
C           4.26680        -1.62504         0.06047
C           5.45375        -1.00667         0.05404
C           6.44893        -1.94307         0.14799
C           6.63290        -3.22861         0.09332
N           7.82603        -3.90010         0.15650
C           8.25123        -5.13672         0.00915
C           9.58368        -5.30191         0.02333
C           9.91422        -6.73009         0.11194
C          11.14822        -7.14594         0.38923
C          12.23264        -6.19059         0.38602
C          12.07653        -4.85382         0.16428
C          10.70266        -4.13256         0.06262
C          10.65331        -2.67202         0.05095
C           9.44528        -1.46912        -0.02143
C           8.98750        -0.11518         0.06898
C           7.37166         0.71391         0.02944
C           5.91179         0.41761         0.04691
C           4.66977         1.43176         0.06308
C           3.29755         1.20753         0.06788
H           0.51763        -0.79641         0.06664
H           0.53846         0.93710         0.07166
H           2.26129        -2.09093         0.05655
H           4.29282        -2.71429         0.08208
H           7.29458        -1.38684         0.35718
H           8.61372        -3.39198         0.51616
H           7.47859        -5.89442         0.02222
H           9.11200        -7.45930         0.00096
H          11.33917        -8.21232         0.51876
H          13.21068        -6.66722         0.48930
H          12.98995        -4.28549         0.02403
H          11.64121        -2.19731         0.10644
H           8.67748        -2.03622        -0.45951
H           9.78830         0.63203         0.17483
H           7.59832         1.79722         0.05972
H           4.90879         2.49987         0.07125
H           2.63058         2.08101         0.07233

