%chk=NC1CdC2CdC[SH]dC1[C]d[C]N2.chk
%NProcShared=20
# opt freq b3lyp/6-31g(2df,p)

Title Card Required 

0  1
N           0.84429         0.10379         0.10946
C           2.28185         0.20462         0.05499
C           2.13105         1.31774        -1.17930
C           2.98700         1.67735        -2.26818
C           4.01210         0.81068        -2.95767
C           4.31569        -0.45514        -2.67304
S           3.83482        -0.99779        -1.11898
C           3.65900         0.73713         0.00503
C           4.00715         2.31067        -0.08232
C           3.82299         3.23444        -0.82731
N           3.39421         3.08374        -2.25782
H           0.37949         0.89922         0.51908
H           0.56122        -0.74152         0.60100
H           2.45471         0.16309         1.15809
H           1.61686         2.14751        -0.66834
H           4.67580         1.24177        -3.71157
H           4.90295        -1.10091        -3.32790
H           4.56651        -1.96351        -0.66690
H           4.22839         3.21221        -2.84514

