%chk=NC1dCCdC2CdCCdC2CdCNdC1C1dCN1.chk
%NProcShared=20
# opt freq b3lyp/6-31g(2df,p)

Title Card Required 

0  1
N           0.95092        -0.77092        -0.49497
C           2.32129        -0.62168        -0.18561
C           3.46537        -1.31316        -0.19235
C           4.83210        -0.95813         0.39886
C           5.48705        -1.66816         1.35920
C           6.91277        -1.77279         1.60808
C           7.09346        -2.73889         2.53632
C           5.80185        -3.21407         3.01271
C           4.83611        -2.52866         2.37417
C           3.41539        -2.51627         2.68483
C           2.26430        -1.79984         2.71390
N           1.91204        -0.41016         2.13868
C           2.34625         0.20946         0.99153
C           2.27907         1.64694         0.13981
C           2.77131         2.27305        -1.01001
N           1.39782         2.25964        -0.80727
H           0.49318        -0.86865         0.43561
H           0.57454         0.18497        -0.65830
H           3.18470        -2.36337        -0.15165
H           5.36300        -0.14509        -0.09474
H           7.67891        -1.25767         1.05715
H           8.03421        -3.11861         2.91197
H           5.66125        -3.91041         3.83065
H           3.44044        -2.09956         1.72376
H           1.61507        -2.40061         3.39432
H           3.33229         2.55718        -1.85671
H           0.85205         1.88108        -1.57241

