%chk=NC1dC2CdC2NdCCdCCdCN1O.chk
%NProcShared=20
# opt freq b3lyp/6-31g(2df,p)

Title Card Required 

0  1
N           0.05009         0.21283        -0.60640
C           1.54587         0.34473        -0.84826
C           2.81585         0.52702        -1.18814
C           4.14238         0.64095        -1.40018
C           3.17426         1.15390        -2.37159
N           1.83375         1.30300        -2.65425
C           0.98215         1.72698        -3.45654
C          -0.34786         1.56383        -3.14806
C          -1.14749         2.09384        -4.14942
C          -2.74390         1.67185        -3.35256
C          -2.03690         0.96517        -2.01726
N           0.02703         0.47229        -1.08510
O           1.05331        -0.34864         0.47922
H          -0.75037        -0.00775        -0.18218
H           0.02994        -0.30799         0.38352
H           5.28351         0.45137        -1.05285
H           1.02795         2.21965        -4.38716
H          -0.70428         0.99766        -2.07388
H          -1.28672         2.60411        -5.11362
H          -3.98887         1.75058        -3.50083
H          -2.40277         1.68833        -3.38402
H           1.99197        -0.64297         1.01855

