%chk=NC1dC2CCqdCNdNC3dCCdC3S2rCdC1.chk
%NProcShared=20
# opt freq b3lyp/6-31g(2df,p)

Title Card Required 

0  1
N           1.67458         0.41589        -0.43406
C           2.81703        -0.12343         0.08616
C           2.48522        -1.08238         1.01079
C           3.80861        -1.39049         1.38886
C           5.10646        -1.86580         1.79640
C           4.54743        -2.75732         2.67263
N           3.17796        -2.90518         2.82399
N           2.56582        -3.65985         3.56045
C           1.16948        -3.49484         3.40912
C           0.06565        -3.99888         3.90856
C          -0.72275        -3.15270         3.06296
C           0.44077        -2.61429         2.56560
S           0.81268        -1.40075         1.41590
C           5.48225        -0.66984         0.63286
C           4.49312         0.11403        -0.13685
H           0.86438        -0.04092         0.01922
H           1.38550         1.10436        -1.09183
H           3.97692        -0.41774         1.93128
H           3.97795        -1.94695         0.38319
H           5.11603        -3.41046         3.31971
H          -0.12791        -4.76909         4.65990
H          -1.81149        -3.10248         2.99418
H           6.58493        -0.59904         0.57378
H           4.72745         0.87868        -0.88267

