%chk=NC1dC2CdCCdCCdCNd[SH]CqdC1rSN2.chk
%NProcShared=20
# opt freq b3lyp/6-31g(2df,p)

Title Card Required 

0  1
N           0.92649        -0.06114        -0.12677
C           2.22799        -0.27402         0.27037
C           2.83918        -1.39560         0.75793
C           2.02099        -2.54572         0.41342
C           2.57797        -3.65063         0.62638
C           1.99186        -4.92184         0.50027
C           2.88798        -5.90068         0.66510
C           2.79140        -6.64049        -0.54741
C           3.71572        -5.76918        -1.25038
N           4.51362        -4.09719        -1.10232
S           4.12702        -2.44974        -1.66259
C           4.25932        -0.27322        -0.76632
C           3.20508         0.54311        -0.35388
S           5.41664        -0.33450         0.60006
N           4.37574        -1.57028         1.13865
H           0.33612        -0.85989         0.04807
H           0.49465         0.83968         0.03281
H           1.03911        -2.54263        -0.07506
H           3.65659        -3.65242         0.76076
H           1.07174        -5.02180        -0.07407
H           3.98372        -5.73885         0.89219
H           1.72069        -7.12495        -0.25344
H           4.37936        -6.79907        -0.84332
H           5.27618        -1.58801        -1.46629
H           3.02811         1.64389        -0.03273
H           4.81216        -2.38466         0.64057

