%chk=NC1dCCdCCdCc2cccn2CdCCdN1.chk
%NProcShared=20
# opt freq b3lyp/6-31g(2df,p)

Title Card Required 

0  1
N           2.11984        -0.83602         1.46890
C           3.51880        -0.35513         2.05705
C           3.61226         0.70517         1.23955
C           4.91637         1.07634         0.80888
C           5.61161         1.59423         1.74294
C           7.01730         1.31968         1.82062
C           7.66295         1.79120         2.85031
C           9.03143         1.56344         2.89837
C           9.98234         1.87007         1.97264
C          11.21600         1.64479         2.58185
C          10.95190         1.12689         3.85319
N           9.55550         0.86453         3.94556
C           8.70943         0.08697         4.83450
C           7.31489        -0.23848         4.69302
C           5.57055        -0.51578         4.02099
N           4.94952        -0.73155         2.79426
H           1.48355         0.00872         1.45967
H           2.10219        -0.80779         0.40494
H           2.89631         1.45011         1.57399
H           5.33271         0.43752         0.00532
H           5.12237         1.88060         2.69913
H           7.46175         0.64087         1.08955
H           7.15715         2.28375         3.68406
H           9.73624         2.26978         1.00103
H          12.17159         1.85431         2.11098
H          11.69460         0.85237         4.59968
H           9.28143        -0.02084         5.78730
H           6.95385         0.67150         5.23797
H           4.98464        -0.54840         4.98248

