%chk=NCC1dC2[SH]dCdC2CdCCqdSrS1.chk
%NProcShared=20
# opt freq b3lyp/6-31g(2df,p)

Title Card Required 

0  1
N           0.96125         0.20651        -0.12293
C           2.41047         0.19359        -0.06658
C           2.89407        -0.72865         0.99635
C           2.29240        -1.87542         1.33857
S           0.43510        -2.72205         1.04674
C           1.68200        -3.45987         1.53593
C           2.86022        -3.20567         1.80151
C           4.20740        -3.53096         2.21287
C           5.29182        -2.73728         2.15326
C           5.45335        -1.34803         1.61787
S           6.83703        -0.81430         0.82369
S           4.20702        -0.19547         2.00977
H           0.64375         0.85695        -0.83095
H           0.61797         0.52669         0.78244
H           2.79987         1.20625         0.07412
H           2.81470        -0.17678        -1.01995
H           0.41555        -2.05616        -0.09061
H           4.34588        -4.55345         2.54783
H           6.23883        -3.16829         2.46652

