%chk=NCCN1NdS2CdCCdCCdC2NCS1.chk
%NProcShared=20
# opt freq b3lyp/6-31g(2df,p)

Title Card Required 

0  1
N           1.23449        -0.10789        -0.06386
C           2.74372        -0.20774        -0.05343
C           3.29467        -1.65593         0.41368
N           4.73217        -2.24900         0.21345
N           5.53205        -2.23917         1.51830
S           7.06465        -2.16162         1.50144
C           7.28624        -0.82443         0.42746
C           7.98950        -0.76802        -0.71309
C           8.64769        -1.72484        -1.53843
C           8.73802        -3.05799        -1.40277
C           8.20568        -3.89195        -0.38241
C           7.47407        -3.68038         0.73269
N           6.70122        -4.71425         1.24823
C           5.76431        -5.17877         0.24031
S           4.79383        -3.78552        -0.64781
H           0.93837         0.81823        -0.37804
H           0.87546        -0.20809         0.88478
H           3.08956         0.60518         0.59807
H           3.05129         0.02774        -1.07744
H           2.63681        -2.32922        -0.14665
H           2.99710        -1.75929         1.46574
H           6.87724         0.11444         0.77050
H           8.03709         0.22645        -1.14262
H           9.06687        -1.31514        -2.45216
H           9.15147        -3.60719        -2.24743
H           8.28160        -4.92951        -0.70862
H           6.12553        -4.26947         1.97228
H           5.10226        -5.95744         0.63053
H           6.37559        -5.73817        -0.49272

