%chk=NdC1CdC2CdCNdCN2CdCc2scnc21.chk
%NProcShared=20
# opt freq b3lyp/6-31g(2df,p)

Title Card Required 

0  1
N           0.88101         1.21422        -0.39304
C           1.64024         2.17326        -0.80679
C           3.09120         1.42911        -0.53764
C           4.46032         1.35470        -0.55242
C           5.16519         0.15280        -0.03749
C           6.51151         0.08114        -0.08900
N           7.33625         1.01907        -0.66541
C           6.70401         2.00881        -1.20505
N           5.34781         2.23824        -1.22068
C           4.81746         3.22922        -2.01564
C           3.68616         2.98850        -2.59176
C           2.62712         3.86854        -2.52619
S           2.56030         5.01107        -3.74001
C           1.01105         5.37551        -3.14875
N           0.50676         4.55387        -2.19903
C           1.51838         3.56220        -1.76151
H           0.00269         0.73240        -0.29011
H           2.82209         0.53620        -1.15094
H           4.61467        -0.67121         0.41180
H           7.04594        -0.76990         0.32704
H           7.26405         2.79003        -1.74957
H           5.38490         4.16157        -2.11172
H           3.23893         2.00291        -2.62405
H           0.63161         6.25500        -3.67303

