%chk=Ndc1cnc2ccccccccccc1-2.chk
%NProcShared=20
# opt freq b3lyp/6-31g(2df,p)

Title Card Required 

0  1
N           1.43892        -1.12376         0.18015
C           2.70043        -1.57242         0.21137
C           3.35926         0.13894         0.13986
N           4.56263        -0.10833         0.37031
C           4.78121        -1.52185         0.59544
C           5.76247        -1.52982         1.44842
C           5.82458        -2.78839         1.90560
C           6.81440        -3.48253         2.30675
C           6.50910        -4.77052         2.66035
C           7.42054        -5.46951         3.25202
C           6.79400        -6.60574         3.86586
C           7.61769        -7.58351         3.57913
C           6.55955        -7.82631         2.16118
C           5.63545        -6.70335         1.23036
C           4.87966        -4.73651         0.66145
C           4.00570        -3.21432         0.41375
H           1.13656         0.02607         0.10862
H           2.82818         1.35111        -0.04052
H           6.35487        -0.69871         1.73227
H           4.94191        -3.36116         2.01225
H           7.64413        -2.92670         2.56819
H           5.52932        -5.25878         2.61658
H           8.42817        -5.11290         3.31369
H           5.69816        -6.93621         3.57427
H           8.76030        -7.47458         3.78432
H           6.83144        -9.08141         2.66487
H           6.95341        -7.03536         1.29114
H           4.07304        -5.16116         0.04341

