%chk=NdC1SCCdC2SCdCCdCSCqNrdCCdC12.chk
%NProcShared=20
# opt freq b3lyp/6-31g(2df,p)

Title Card Required 

0  1
N           1.79435        -0.77115        -0.03818
C           3.36790        -1.44367        -0.07090
S           2.96101         0.83307        -0.01979
C           4.57443         1.22035        -0.03259
C           5.24114        -0.00020        -0.02757
C           4.67348        -1.16543        -0.09033
S           5.85180        -2.13420         0.23944
C           7.38472        -2.17338         0.06434
C           8.16111        -3.20308         0.18440
C           9.36538        -2.78955         0.09904
C           9.46067        -3.93986         0.88435
S          11.37583        -3.70687         0.21484
C          10.50884        -5.53636        -0.28518
N          11.88005        -6.77110         0.01055
C           8.81219        -4.98926        -0.85578
C           6.64251        -4.09105        -0.58747
C           5.10699        -2.93749        -0.32545
H           0.97672         0.47019        -0.01156
H           4.74136         1.73146         0.88018
H           4.69184         1.64664        -0.99374
H           6.26425        -0.02801        -0.03088
H           7.63770        -1.23632        -0.02369
H           7.82636        -4.71584         0.33523
H          10.09562        -2.05410        -0.02471
H           9.00086        -5.42277         0.78632
H          11.04177        -7.29161         0.05102
H          12.45666        -7.85253         0.02854
H          10.29970        -5.17422        -0.25231
H           5.43043        -4.25626        -0.07216

