%chk=Ndc1ccc2cqccccnc1rdCCdCCdCCd2.chk
%NProcShared=20
# opt freq b3lyp/6-31g(2df,p)

Title Card Required 

0  1
N           1.44887         0.07251         0.15477
C           2.81620         0.04343         0.11555
C           3.30288        -0.85645        -1.14388
C           4.58187        -1.09960        -1.47951
C           5.87873        -1.75290        -2.52859
C           7.04995        -1.44483        -1.94481
C           7.50377        -0.67298        -0.90405
C           6.92519        -0.00414         0.04474
C           7.45902         0.75867         1.11746
C           6.56226         1.38064         1.99081
N           4.99867         1.53004         2.20042
C           3.79688         0.98322         1.43304
C           7.93562        -2.16126        -2.56846
C           9.24233        -1.96205        -2.56869
C           9.21083        -2.85266        -3.71041
C          10.44406        -2.77322        -4.03634
C           8.80276        -2.53600        -4.46648
C           6.62040        -2.31554        -3.95240
H           0.85592        -0.45698        -0.58841
H           2.53088        -1.28594        -1.75445
H           4.82981        -0.48329        -0.62478
H           8.55142        -0.68055        -0.90361
H           5.90801         0.08236         0.16914
H           8.54499         0.71318         1.05388
H           5.84475         0.97183         1.41690
H           2.88612         1.34537         1.94118
H           7.64529        -3.39634        -3.59567
H           9.88980        -1.42258        -1.94873
H           8.72145        -3.81468        -5.02775
H          11.34797        -2.40544        -3.30683
H           9.93926        -3.49058        -4.99085
H           5.48021        -2.81511        -3.93531

