%chk=Ndc1cccccccnsc1dNNNdCS.chk
%NProcShared=20
# opt freq b3lyp/6-31g(2df,p)

Title Card Required 

0  1
N           1.95258        -0.02059        -0.22388
C           3.61493         0.03318        -0.48292
C           2.88880         0.21009        -1.64545
C           4.11613         0.20857        -1.67703
C           4.81940         0.37255        -2.74182
C           5.94408         0.19165        -2.44149
C           6.33763         0.73630        -3.18606
C           8.10308         0.52029        -1.96256
C           8.65382         0.64057        -4.10855
N           9.95047         0.56628        -3.97595
S           7.79699         0.14916        -3.45792
C           5.97720         0.12434        -0.94595
N           5.25393        -0.22359         0.76443
N           3.80017        -0.37182         2.28625
N           2.76375        -0.73248         3.95835
C           3.00897        -0.96091         5.53271
S           2.12134        -1.23965         7.27756
H           0.79542         0.07980        -0.86825
H           2.29838         0.32918        -2.42558
H           4.77366         0.05745        -0.81813
H           4.46364         0.53045        -3.65341
H           7.06667         0.06623        -1.48128
H           6.50070         0.70820        -4.69549
H           9.43579         0.33738        -2.40376
H           8.75520         0.85037        -5.59509
H           4.28578        -0.58868         3.27896
H           4.07741        -0.99357         5.80076
H           0.79199        -1.20643         7.08991

