%chk=NdC1CdCCdCCdCCdCCdNCdCCdCCdC1.chk
%NProcShared=20
# opt freq b3lyp/6-31g(2df,p)

Title Card Required 

0  1
N           3.88316        -0.42827         1.29500
C           6.19118        -0.58982         1.88829
C           3.79982        -0.49440         1.53786
C           5.21575        -0.46752         1.43915
C           5.10053        -0.89354         3.00367
C           6.73924        -0.93690         3.16292
C           7.27786        -1.17984         4.05511
C           8.60717        -1.29296         4.47055
C           9.13233        -1.52828         5.33476
C          10.14633        -1.52108         5.30830
C          10.91693        -1.83831         6.47332
N          12.06329        -1.88437         6.64247
C          12.89338        -2.19151         7.77045
C          14.08023        -2.08784         7.38971
C          14.82210        -2.26884         8.05444
C          13.61680        -1.76766         6.21386
C          11.28179        -1.31262         4.54273
C           8.99775        -0.94258         3.18378
H           1.93374        -0.33884         0.96657
H           2.51282        -0.67769         2.21099
H           4.95282        -0.16374         0.32351
H           4.49729        -1.04700         3.56726
H           8.00908        -0.74375         2.45359
H           6.70453        -1.36655         4.74081
H          10.05109        -0.92500         3.11923
H           8.82316        -1.72362         6.05214
H          10.85112        -1.05975         3.61409
H          10.89860        -2.08121         7.36537
H          12.98521        -2.42439         8.62569
H          15.44182        -1.81343         6.38195
H          15.11699        -2.71834         9.70520
H          15.49897        -2.06306         7.29871
H          13.03128        -1.58572         5.54569
H           7.49887        -0.54706         1.73127

