%chk=NdC1CdCdCqN2CCC2CdCdSdOrCdC1.chk
%NProcShared=20
# opt freq b3lyp/6-31g(2df,p)

Title Card Required 

0  1
N           1.30779        -0.04410         0.19710
C           2.54023        -0.07540        -0.03509
C           3.23841        -1.26939        -0.18070
C           4.55781        -1.25151        -0.66351
C           5.24561        -0.05406        -0.91110
N           6.54256        -0.07816        -1.45239
C           7.05189        -0.59354        -2.68690
C           8.41563        -0.67052        -1.98764
C           7.82736         0.37672        -1.01060
C           8.11696         0.15953         0.42030
C           7.77779         1.02510         1.33953
S           7.31781         2.12109         2.39058
O           6.10600         2.86912         1.94578
C           4.58465         1.13301        -0.57637
C           3.23659         1.12343        -0.16176
H           0.80816        -0.92832         0.04071
H           2.79230        -2.21313         0.11699
H           7.02891         0.15570        -3.49013
H           6.62863        -1.53376        -3.03944
H           9.28016        -0.35244        -2.57819
H           8.63036        -1.66159        -1.56551
H           8.03743         1.40503        -1.33289
H           8.74058        -0.67953         0.70499
H           5.08432         2.09289        -0.67277
H           2.72942         2.06078         0.05836

