%chk=NdCC1CdC2CdCCdCCdC2SCdCCdN1.chk
%NProcShared=20
# opt freq b3lyp/6-31g(2df,p)

Title Card Required 

0  1
N           0.70751        -0.11921        -0.14236
C           1.97451        -0.41594        -0.18776
C           2.56595        -1.78857         0.33174
C           4.26495        -1.35237         0.15186
C           5.31857        -2.06729         0.62582
C           6.77058        -1.65766         0.54066
C           7.84781        -2.41259         0.86025
C           7.90007        -3.75909         1.38360
C           6.89578        -4.58768         1.64082
C           5.50599        -4.37720         1.50259
C           4.82419        -3.27075         1.28160
S           3.58884        -3.11488         2.58298
C           2.56838        -4.48031         2.35246
C           1.27343        -4.26624         2.10558
C           1.33187        -4.57711         0.65051
N           1.77474        -3.43865         0.09733
H           0.53136         0.86533        -0.38710
H           2.68525         0.46027        -0.37774
H           2.38465        -1.52855         1.37092
H           4.56636        -0.29915        -0.10051
H           7.02610        -0.66368         0.14747
H           8.85636        -2.00897         0.71395
H           8.88202        -4.17638         1.58704
H           7.06179        -5.54874         2.11318
H           4.93682        -5.16304         1.95308
H           2.99365        -5.48046         2.15599
H           0.37550        -3.66333         2.08496
H           0.88398        -5.70710         1.25462

