%chk=NdCqNrC1CdNNdCCdCCdCCqOrC1dN.chk
%NProcShared=20
# opt freq b3lyp/6-31g(2df,p)

Title Card Required 

0  1
N           1.61502         0.30372         0.15036
C           3.23115         0.46001         0.45250
N           3.22001        -1.11529        -0.11125
C           4.96423         1.80277         0.82104
C           5.21407         0.85068        -0.16913
N           5.88068         1.81904        -0.48571
N           7.10156         1.46081        -0.27608
C           7.76609         2.56278        -0.29414
C           9.11771         2.24589        -0.22740
C           9.75454         3.39330        -0.51076
C          11.17751         3.05545        -0.35673
C          10.95073         3.96734         0.59865
C           9.28132         3.38912         1.60885
O          11.11828         4.17395         1.80059
C           6.89795         2.64965         1.59559
N           5.41189         2.68900         1.89912
H           0.87416        -0.74467        -0.11449
H           2.57171        -1.98634        -0.29456
H           4.12954        -1.46162        -0.23610
H           3.78674         2.19572        -0.03580
H           5.11871        -0.19857         0.01241
H           7.45434         3.71461         0.09818
H           9.55784         1.31600         0.13788
H           9.47045         4.56211         0.15929
H          11.75073         2.14204         0.13594
H          11.60751         5.27987         0.44044
H          10.65905         2.84837         1.71324
H          12.41057         4.53444         1.29808
H           4.12673         2.85052         2.19304

