%chk=NdCqSSrC1dCCdCCdCCC1dS.chk
%NProcShared=20
# opt freq b3lyp/6-31g(2df,p)

Title Card Required 

0  1
N           1.33891         0.40740        -0.11074
C           2.63586         0.49410        -0.23054
S           3.33210        -1.41524         0.19429
S           1.89278        -2.94976         0.42122
C           4.00791         1.71361        -0.69128
C           5.02836         0.97856        -0.25916
C           5.85073         1.88490         0.19087
C           7.20140         2.11603         0.25311
C           7.32605         3.56862         0.52112
C           8.09107         3.74574        -0.53632
C           6.72889         4.21159        -1.34172
C           4.78518         3.44326        -1.16258
S           3.27912         4.32850        -0.75652
H           1.00169        -0.58934         0.11290
H           2.59406        -4.13825         0.58787
H           5.10475        -0.02025         0.07321
H           5.40959         2.76998         0.57379
H           7.77535         1.34159        -0.20115
H           6.38556         4.45079         0.52262
H           8.96472         3.02761        -0.62263
H           7.30066         4.74948        -2.16094
H           7.12399         5.27120        -0.75120

