%chk=NdCSCCC1dC2CdC2CC1dO.chk
%NProcShared=20
# opt freq b3lyp/6-31g(2df,p)

Title Card Required 

0  1
N           0.96346        -0.02555         0.03919
C           2.25250        -0.01698         0.02724
S           3.06221        -1.01614         1.20685
C           4.83406        -0.73867         0.89226
C           5.64441        -1.58010         1.89147
C           7.13097        -1.50228         1.70752
C           7.91617        -0.43816         1.58035
C           9.09363         0.20468         1.41895
C           9.48124        -1.02529         1.35637
C           9.33218        -2.49221         1.36847
C           7.89836        -2.74230         1.61455
O           7.40022        -3.85513         1.70506
H           0.57532         0.58796        -0.68267
H           2.81235         0.59862        -0.69692
H           5.07438         0.32191         1.01227
H           5.08350        -1.04130        -0.13101
H           5.33187        -2.62779         1.78283
H           5.40395        -1.30432         2.92704
H           9.56060         1.15739         1.35444
H           9.92330        -2.94398         2.16876
H           9.60363        -2.90953         0.39562

