%chk=NNCC1dNCdCCdCc2cc1ccn2.chk
%NProcShared=20
# opt freq b3lyp/6-31g(2df,p)

Title Card Required 

0  1
N           1.62251        -0.21704         0.05633
N           3.58719        -0.09543         0.23767
C           5.16445        -1.10041         1.01869
C           7.26722        -1.46458         1.56715
N           6.35735        -2.38706         1.51451
C           6.72064        -2.81290         0.33080
C           7.09112        -3.97199         0.92689
C           8.47530        -4.02553         0.99131
C           9.16143        -4.78706         1.85323
C          10.49087        -4.61308         2.37781
C          10.16617        -2.92705         2.61802
C           9.45756        -2.06451         1.59409
C          11.09173        -2.99376         1.04862
C          12.07692        -4.61162         1.22839
N          11.37531        -5.49705         1.80836
H           1.06173         0.67435        -0.40851
H           0.93726        -0.12980         0.89218
H           3.35031         0.77157         0.69877
H           4.36271        -1.96124         0.33143
H           4.11636        -1.40612         1.71672
H           7.19544        -1.75140        -0.26349
H           6.55054        -4.33584         1.86111
H           8.70244        -3.11770         0.34412
H           8.72426        -5.50806         2.46235
H          11.14549        -2.47379         3.10150
H          12.50799        -3.02744         1.42522
H          13.23244        -5.40678         1.33082

