%chk=NOC1dCNdCC2dNCdCNdCC2dCdCdC1.chk
%NProcShared=20
# opt freq b3lyp/6-31g(2df,p)

Title Card Required 

0  1
N           1.60611         0.31048        -0.07254
O           2.92431         0.35667        -0.78456
C           3.82241         1.32851        -0.22327
C           4.73189         1.01505         0.73055
N           5.40570         2.03564         1.37150
C           6.66110         2.16247         1.09953
C           7.20507         3.59170         0.99859
N           7.05929         4.38307         2.00115
C           7.43647         5.69546         1.96447
C           8.40260         6.30756         1.26891
N           9.17637         5.85616         0.23298
C           8.81242         4.85945        -0.52969
C           7.65001         3.88093        -0.39795
C           6.72225         3.41770        -1.22731
C           5.59355         2.89704        -1.37057
C           4.33020         2.48379        -1.14514
H           1.31531        -0.68343        -0.08477
H           0.96910         0.70237        -0.77540
H           5.19652         0.03967         0.59655
H           7.28658         1.39091         0.61315
H           6.93187         6.29592         2.72224
H           8.65996         7.31613         1.61942
H           9.57258         4.65433        -1.31106
H           3.68845         3.31104        -0.83213

