%chk=NSC1dNCdCCdNCdCNdNCqdOrCqOOrdN1.chk
%NProcShared=20
# opt freq b3lyp/6-31g(2df,p)

Title Card Required 

0  1
N           2.14308        -0.64167         0.50320
S           4.12139        -1.89451         1.57746
C           6.01631        -3.51940         2.97047
N           5.61590        -2.16338         1.78978
C           5.36395        -3.08447         2.54063
C           6.97010        -2.48525         2.06369
C           7.69630        -3.46986         2.90004
N           8.91544        -3.66071         2.97940
C           9.27815        -4.98237         3.50533
C           9.85873        -4.48935         4.82304
N           9.34751        -5.95019         6.06732
N          10.66748        -5.86481         5.25476
C          11.10368        -7.08202         5.97191
O          11.35088        -8.13053         7.00116
C           9.61798        -6.11612         4.56590
O          11.62225        -6.90955         5.70713
O          13.51927        -7.92725         6.73648
N           7.88870        -4.85326         4.05263
H           1.15015         0.31420        -0.42076
H           0.87995         0.00734         0.92194
H           4.20441        -3.26816         2.75387
H           7.41337        -1.84189         1.49758
H           6.55413        -4.44543         3.75286
H           8.26552        -5.78747         4.77197
H          10.91904        -4.63438         3.89943
H          14.66141        -8.76346         7.53459

