%chk=NtCc1cccc2ccccccccccc-2o1.chk
%NProcShared=20
# opt freq b3lyp/6-31g(2df,p)

Title Card Required 

0  1
N           1.07441         0.00204         0.06677
C           2.33538         0.00204         0.06677
C           3.85538         0.00204         0.06677
C           4.38817        -1.11269         0.54938
C           5.72372        -1.47488         0.31516
C           6.79879        -0.65329         0.24986
C           7.38919         0.89783         0.72034
C           8.64800         0.68068         0.56476
C           9.32219         1.79937         0.78236
C          10.52024         2.17257         0.90865
C          10.95892         3.46092         0.99185
C          12.21953         3.73261         1.09385
C          12.49387         5.11941         0.75059
C          13.60552         5.41866         1.39652
C          12.16723         5.98878         2.42113
C          10.47160         5.13907         2.44361
C           8.61661         3.87097         1.83528
C           7.19764         2.60965         1.24780
O           5.33581         1.51105         0.65541
H           3.71834        -1.84684         0.97019
H           5.79156        -2.58947         0.16409
H           7.58947        -1.33942        -0.20351
H           9.15218        -0.19005         0.30791
H           8.86421         2.68308         0.74741
H          11.13601         1.39305         0.73489
H          10.42436         4.40704         0.87281
H          12.95439         2.98767         1.16540
H          11.55533         6.10855         0.87961
H          14.57865         4.81718         1.61630
H          13.18665         7.20801         2.35547
H          11.99255         5.39873         2.80572
H           7.85580         4.03449         2.48516

