%chk=NtCN1CdCCdCCdCC12[N]NNdNNNNS2.chk
%NProcShared=20
# opt freq b3lyp/6-31g(2df,p)

Title Card Required 

0  2
N           1.74332         0.05991         0.17589
C           2.90715         0.00768         0.13489
N           4.47924        -0.36436        -0.27676
C           4.38662        -1.07857        -1.37644
C           5.58802        -0.83411        -1.98112
C           6.41110        -1.51843        -2.78168
C           7.69442        -1.16347        -2.40868
C           7.92341        -2.25129        -1.48793
C           7.40918        -1.54644        -0.26288
C           6.12287        -0.02154         0.40849
N           4.95247         0.83104         1.26121
N           4.53947         2.14810         2.16152
N           5.09096         3.35307         1.97105
N           6.28687         3.41667         2.32781
N           6.64274         2.57556         3.34955
N           7.20065         1.29843         3.09954
N           6.20358         0.28756         3.36622
S           6.16441        -0.99855         2.25159
H           3.57560        -1.68524        -1.61485
H           6.12999        -0.01687        -1.55233
H           6.03790        -2.56987        -2.86765
H           8.15610        -0.26081        -1.80686
H           8.06770        -2.84771        -2.59536
H           8.65798        -1.47108        -0.29724
H           4.08502         2.07810         3.10239
H           6.68224         3.02684         4.25364
H           7.92078         1.10870         3.78570
H           5.28942         0.76613         3.39368

