%chk=OC12CdCCdCCdCCqdCCdC1rCNN2.chk
%NProcShared=20
# opt freq b3lyp/6-31g(2df,p)

Title Card Required 

0  1
O           1.02918         0.06504         0.22905
C           2.45784        -0.01196         0.14389
C           2.98979         0.17843         1.66853
C           4.11191        -0.39551         2.17075
C           5.16671         0.16374         3.04669
C           6.38785         0.42651         2.56137
C           7.41400        -0.04789         1.56506
C           7.27308        -0.29513         0.23045
C           5.97810        -0.34197        -0.53756
C           5.39128        -1.53472        -0.85930
C           3.98885        -1.99164        -0.68527
C           2.79825        -1.40874        -0.35140
C           5.15786         0.89435        -0.34092
N           4.16987         1.42985        -1.21852
N           2.78043         1.04225        -0.89034
H           0.69097        -0.74097         0.63855
H           2.47939         0.97537         2.21669
H           4.62770        -1.16858         1.59752
H           4.80930         0.82317         3.85490
H           6.16149         1.23669         1.87192
H           8.42276         0.11976         1.98917
H           8.17703        -0.34450        -0.38853
H           6.01810        -2.36714        -1.18355
H           3.92279        -3.08472        -0.61793
H           1.95565        -2.09726        -0.28106
H           5.53131         1.70260         0.27382
H           4.53838         0.39878         0.31456
H           4.46242         1.47120        -2.18878
H           2.31739         0.74333        -1.75015

