%chk=OC1COc2c3ccccncccccc1c2-3.chk
%NProcShared=20
# opt freq b3lyp/6-31g(2df,p)

Title Card Required 

0  1
O           4.64433        -0.68476         0.23047
C           6.95001        -1.64978         0.62459
C           4.35674        -1.56454         0.54134
O           5.28118        -1.82358         0.91889
C           5.63825        -2.72562         1.08475
C           6.61343        -3.08799         1.26314
C           7.23175        -3.89883         1.60017
C           8.34832        -4.07391         1.67437
C           9.21524        -4.85144         2.00063
C          10.40107        -4.94779         2.04109
N          11.19137        -6.03445         2.49770
C          12.31469        -6.00605         2.48588
C          12.92376        -7.18526         2.98141
C          14.14303        -6.89561         2.85976
C          13.76120        -5.65398         2.33674
C          11.66937        -4.18848         1.71902
C           9.59641        -2.93111         1.18306
C           7.46082        -2.11509         0.84089
H           2.97652        -0.14396         0.02091
H           5.44126        -0.56496         0.19144
H           2.81399        -2.09272        -0.08100
H           2.82924        -1.43614         1.46907
H           6.70585        -4.52272         1.86231
H           8.30988        -3.01795         1.23297
H           8.90965        -5.65056         2.33637
H          10.91243        -3.39122         1.38711
H          13.14983        -4.40374         1.81185
H          13.13902        -8.04928         3.34450
H          15.40306        -6.04686         2.50301
H          14.68724        -7.29144         3.02575
H          13.43618        -5.22838         2.16130

