%chk=OC1dCCdCC2qCdCCdCNdCS1rCCdN2.chk
%NProcShared=20
# opt freq b3lyp/6-31g(2df,p)

Title Card Required 

0  1
O           2.67942        -0.01596         1.49814
C           4.01423         0.58881         1.18535
C           3.89770         0.90966        -0.13570
C           4.90317         0.56947        -1.05050
C           5.33829         1.49717        -1.90895
C           6.79142         1.65010        -1.78048
C           7.18459         1.74573        -0.38238
C           8.43600         1.76772         0.02037
C           8.49004         2.17054         1.37988
C           9.35193         1.73992         2.20800
N           8.71772         1.18237         3.28699
C           7.51896         0.50131         3.20862
S           5.76350        -0.05127         2.17889
C           7.46586         2.70942        -2.60097
C           7.99515         1.50317        -3.33659
N           7.49415         0.63280        -2.54602
H           2.05031         0.12259         0.72032
H           2.95357         1.07160        -0.69800
H           5.57336        -0.16801        -0.61732
H           4.73923         2.31541        -2.29488
H           6.38042         1.91069         0.34430
H           9.30788         1.52999        -0.56713
H           7.52442         2.36823         1.85656
H          10.40705         1.47956         1.94133
H           7.91162        -0.34407         3.83177
H           8.23278         3.28781        -2.06945
H           6.78588         3.38210        -3.11239
H           8.63569         1.46242        -4.21116

