%chk=OC1dCCdCCdCCdCCdCCdCCdCCdC1.chk
%NProcShared=20
# opt freq b3lyp/6-31g(2df,p)

Title Card Required 

0  1
O           3.83815         0.93102         0.06314
C           6.34332         1.49737         0.14782
C           4.19296         1.48145         0.14544
C           5.25938         1.11595         0.09079
C           5.32106         2.76342         0.33712
C           6.84655         2.90633         0.35849
C           7.54912         3.73975         0.48310
C           9.01130         4.05603         0.53039
C           9.56403         4.93774         0.66222
C          10.60289         5.04241         0.67787
C          11.31536         6.00986         0.82252
C          12.27500         5.72800         0.78038
C          13.67764         6.82633         0.94460
C          15.22534         6.75984         0.93466
C          13.59706         5.60840         0.76250
C          11.27440         3.91693         0.50959
C           9.06209         2.60523         0.31347
H           2.02408         0.79305         0.04252
H           2.70101         2.09435         0.23708
H           5.32370         0.00338        -0.07555
H           4.71887         3.37344         0.42833
H           7.58597         2.33158         0.27255
H           7.01151         4.45339         0.58980
H          10.19331         2.85607         0.35097
H           9.17740         5.64553         0.76805
H          11.20333         2.95797         0.36621
H          11.40882         6.84903         0.94799
H          13.89886         4.43836         0.58755
H          13.58753         7.93760         1.11075
H          16.26227         5.91961         0.80903
H          14.79145         7.32150         1.01864
H          12.96826         4.73108         0.63132
H           7.77361         1.22690         0.10738

