%chk=OCC1dNCdCqSrCdCdCCqSrdCS1.chk
%NProcShared=20
# opt freq b3lyp/6-31g(2df,p)

Title Card Required 

0  1
O           1.51345         0.62952         0.53526
C           2.95494         0.75349         0.88648
C           4.27348         2.08643         1.20724
N           4.52232         2.21684        -0.05397
C           5.11034         3.32918        -0.27681
C           6.44522         3.41014        -0.28937
S           7.48858         2.01769         0.05668
C           6.74974         4.79040        -0.18495
C           7.99901         5.13874        -0.13218
C           8.86454         5.33219         0.76543
C           8.09337         5.44951         2.02012
S           8.51723         6.97813         2.83486
C           7.31249         4.46606         2.67907
S           5.63030         3.09472         2.61743
H           1.27781        -0.24099         0.09779
H           3.23285         0.52462        -0.19763
H           3.20758        -0.21463         1.30708
H           4.43835         4.17437        -0.16496
H           6.56548         1.02408         0.16700
H           6.08825         5.35875         0.51801
H           9.84653         4.86323         0.63725
H           7.25404         7.15570         3.20828
H           8.24632         3.95720         3.04907

