%chk=OdC1[C][C]CSCNdCdCdC1.chk
%NProcShared=20
# opt freq b3lyp/6-31g(2df,p)

Title Card Required 

0  1
O           3.60427         0.33333        -0.48296
C           4.21258        -0.21624         0.45469
C           2.96311        -0.73576         1.34070
C           4.33491        -0.83178         1.50507
C           4.63790        -1.50708         2.64148
S           5.93648        -2.02856         3.60092
C           7.66447        -1.86980         3.26443
N           7.88303        -1.20030         2.13725
C           8.55332        -0.70917         1.29053
C           7.41667        -0.45148         0.85419
C           6.12226        -0.17083         0.37669
H           4.79227        -2.41394         2.07797
H           4.78408        -0.56753         3.15737
H           7.89314        -2.92963         3.20848
H           7.89784        -1.30316         4.16118
H           5.98327         0.35984        -0.52799

