%chk=Odc1cccc2ccccccc-2csccs1.chk
%NProcShared=20
# opt freq b3lyp/6-31g(2df,p)

Title Card Required 

0  1
O           1.55196         0.22355         0.46969
C           2.80748         0.22170         0.46460
C           3.37940        -0.39157        -0.99820
C           4.71972        -0.46561        -1.18117
C           5.76713        -0.91914        -2.27677
C           7.23260        -1.02533        -2.67597
C           7.00371        -1.57295        -3.96621
C           8.11839        -1.94955        -4.40174
C           9.19684        -2.41704        -5.00628
C          10.37602        -2.36615        -4.17420
C          11.07163        -1.69684        -5.10291
C          10.57515        -0.79515        -3.86229
C           9.03491        -0.72875        -2.27929
C           8.30518        -0.30103        -0.95701
S           8.24239         0.46241         0.99356
C           6.62781         0.82292         1.89099
C           5.84177         1.24964         2.91730
S           3.77508         0.97746         2.26744
H           2.60368        -0.71500        -1.77005
H           5.08105        -0.08292        -0.26602
H           5.01446        -1.26265        -3.06473
H           6.25485        -1.89086        -4.60174
H           8.68564        -1.66221        -3.66062
H           8.93070        -2.54267        -6.07587
H          11.30575        -2.08295        -3.03102
H          10.97438        -2.52607        -6.13998
H          11.87958        -1.26475        -4.17598
H           7.12522        -0.31950        -0.81137
H           5.72427         0.63483         1.44942
H           6.32048         1.67922         3.94117

