%chk=OdC1CdCc2c3ccqnc21rCdCCdC3.chk
%NProcShared=20
# opt freq b3lyp/6-31g(2df,p)

Title Card Required 

0  1
O           1.01666         0.09537         0.05348
C           2.19949         0.01744         0.03275
C           3.14823         1.16613         0.04681
C           4.40344         0.66365         0.04308
C           4.40018        -0.84310        -0.05397
C           5.37182        -1.90674         0.08547
C           4.97008        -2.87917         0.93766
C           3.62316        -3.26033         0.53759
N           2.63408        -2.42614         0.10740
C           3.06723        -1.18509         0.00473
C           3.32780        -4.64060         0.25997
C           4.49772        -5.40642         0.28963
C           5.51011        -4.76796        -0.85595
C           5.84902        -3.31459        -0.82828
H           2.79046         2.19103         0.05452
H           5.27018         1.31626         0.06712
H           5.89809        -3.58576         1.16237
H           2.29196        -4.99852         0.09751
H           5.52574        -5.53325         0.71135
H           4.95737        -5.88569        -0.91804
H           6.91567        -2.95204        -0.59889

