%chk=OdC1CdNNdCdC2NdCSCdCC2dCCdCCdCO1.chk
%NProcShared=20
# opt freq b3lyp/6-31g(2df,p)

Title Card Required 

0  1
O           2.44414         1.27518        -2.01458
C           3.50863         1.92853        -1.86624
C           3.47625         2.00476        -0.41427
N           4.50924         1.62756         0.23062
N           5.36936         2.63766        -0.11886
C           6.44086         2.37180        -0.37000
C           7.74404         2.36410        -0.59174
N           8.26337         1.23457        -1.11495
C           9.06665         0.51767        -0.40064
S           9.90031         0.74538         1.09211
C           9.79905         2.35340         1.63068
C           9.23361         3.43416         1.10643
C           8.56452         3.49894        -0.15090
C           8.65150         4.68292        -0.80349
C           7.89456         4.79357        -1.97877
C           7.49142         5.76534        -2.76370
C           6.34042         5.15157        -3.54179
C           5.17733         4.32118        -3.35204
O           4.20355         3.31408        -2.31704
H           2.55495         2.48497        -0.02612
H           9.26513        -0.49142        -0.77723
H          10.29851         2.50908         2.57179
H           9.27682         4.35448         1.68046
H           9.19867         5.55152        -0.44738
H           7.43378         3.87128        -2.27514
H           8.01015         6.75584        -2.73170
H           6.54346         5.40975        -4.59409
H           4.53724         5.20290        -3.16648

