%chk=OdC1CCdC2CC2CCdCCdC2CdCC3dC2CC13.chk
%NProcShared=20
# opt freq b3lyp/6-31g(2df,p)

Title Card Required 

0  1
O           5.52161        -1.01978        -2.04337
C           6.61898        -0.27876        -2.03842
C           5.10654         0.84946        -1.16152
C           5.11712         1.12027         0.35407
C           5.64019         2.30032         0.27246
C           5.69791         3.67011         0.53175
C           6.95167         2.72578         0.27010
C           7.72122         2.63941        -0.97151
C           8.77340         1.58142        -0.84294
C           9.72235         1.45544        -1.75699
C          10.86260         0.58783        -1.57439
C          11.69842         0.42200        -2.61493
C          11.83968         1.20481        -3.83681
C          11.45696         0.49438        -4.90814
C          10.26864        -0.50281        -4.14557
C          11.15192        -0.80840        -3.10417
C          10.45470        -1.98243        -2.75036
C           8.73827        -0.86352        -2.91198
H           3.88534         0.78791        -0.30299
H           3.80883         1.43664        -1.37925
H           5.15564         0.03920         0.42393
H           5.49771         4.03453         1.52097
H           5.43320         4.44259        -0.18185
H           7.57196         2.42424         1.08960
H           8.19173         3.61669        -1.07343
H           7.09144         2.45234        -1.84746
H           8.82582         0.96498         0.05127
H           9.62651         2.01182        -2.68538
H          10.77426        -0.25010        -0.85685
H          11.38237         2.17247        -3.90656
H          11.63065         1.00015        -5.90007
H          10.93252        -2.93541        -2.39902
H          11.61227        -2.46040        -3.43035
H           8.70092        -1.63442        -3.87260

