%chk=Odc1ccc2cccnsssc1d2.chk
%NProcShared=20
# opt freq b3lyp/6-31g(2df,p)

Title Card Required 

0  1
O           3.36883        -0.03416         1.06527
C           4.88884        -0.01556         1.88118
C           3.30213        -0.01547         1.88511
C           4.93078        -0.02559         1.44108
C           5.31880         0.00978         2.99219
C           6.81678         0.00660         2.85247
C           7.27612         0.04746         4.64419
C           8.15955         0.00478         2.77261
N           7.80020         0.04763         4.65163
S          10.13718         0.04131         4.37461
S          10.76185         0.08374         6.23505
S           9.32818         0.03363         4.03783
C           6.65500         0.01357         3.15815
H           2.35024        -0.00072         2.53159
H           5.01045        -0.05441         0.17774
H           7.10107        -0.02545         1.44747
H           6.42893         0.06616         5.46407
H           9.31563        -0.00580         2.30879

