%chk=OdC1CdCCdCNdCdCNdCCdCCdCSCdN1.chk
%NProcShared=20
# opt freq b3lyp/6-31g(2df,p)

Title Card Required 

0  1
O           6.31015        -2.17520        -0.80741
C           7.25741        -2.59367        -1.92240
C           5.30147        -1.68768        -1.69189
C           4.84807        -0.21086        -1.62142
C           5.24934        -0.69008        -2.91885
C           6.61390        -0.62761        -2.99464
N           7.28207        -1.51274        -3.83114
C           8.46382        -1.39665        -3.83776
C           9.80330        -1.37423        -3.87993
N          10.47689        -2.31998        -4.67776
C          11.78064        -2.27901        -4.73795
C          12.48705        -3.23604        -5.68672
C          13.85838        -3.15842        -5.75409
C          14.54596        -4.44250        -6.30946
C          15.11530        -4.59201        -5.10307
S          13.11564        -4.69518        -3.78206
C          10.91981        -3.67402        -2.98956
N           9.27626        -3.03876        -2.45695
H           3.73673        -1.34628        -1.86934
H           4.94907         0.10429        -0.51929
H           4.52835        -1.44327        -3.45505
H           7.05025        -0.40805        -1.85061
H          10.36660        -0.88310        -3.06688
H          12.41638        -1.80379        -3.90904
H          12.05715        -4.31116        -5.82916
H          14.48713        -2.76250        -4.76858
H          14.14837        -5.43247        -6.65312
H          16.45348        -3.93776        -5.37158
H          12.45564        -3.54018        -3.38376

