%chk=OdC1CNdCCdNNdC2CdCCdCCdCCdC12.chk
%NProcShared=20
# opt freq b3lyp/6-31g(2df,p)

Title Card Required 

0  1
O           5.58955         0.14595         1.83959
C           7.52370         0.21312         2.57840
C           5.09207         0.15371         1.92511
N           6.05009         0.04230         0.70035
C           6.23030         0.23671         2.83759
C           8.13891         0.10533         1.39320
N           8.63392         0.27669         3.27706
N           9.36797         0.20311         2.46819
C           9.55049         0.33968         3.96977
C          11.03767         0.26153         3.11033
C          11.15548         0.37828         4.39329
C          13.21612         0.25451         3.03289
C          13.41800         0.44244         5.09851
C          14.63414         0.30097         3.54387
C          14.66265         0.42243         4.87967
C          12.45733         0.34958         4.07926
C          10.26353         0.25468         3.03536
H           3.40412        -0.51888         1.86657
H           3.40412         0.80471         1.74618
H           4.83674         0.28066         3.32072
H           7.39205         0.03466         0.61622
H          11.65979         0.16622         2.06262
H          11.69938         0.46510         5.34840
H          14.04000         0.19028         2.32691
H          14.04488         0.53930         6.16417
H          16.06555         0.31188         3.66396
H          16.06382         0.53150         6.07841
H          14.46611         0.40894         4.73183

