%chk=OdC1CdCCdCCdC2CdCNdCCdC12.chk
%NProcShared=20
# opt freq b3lyp/6-31g(2df,p)

Title Card Required 

0  1
O           4.44194         0.09999        -0.45285
C           5.44215         1.22466        -0.77726
C           3.72197         1.62564        -0.11787
C           4.92852         1.74499         0.27301
C           4.90640         3.22550         0.14969
C           6.15309         3.18833         0.33877
C           6.98447         4.19229         0.06142
C           8.12948         3.61189        -0.00751
C           9.15703         5.04277        -0.01658
C          10.46814         5.38023         0.01626
N          11.36324         4.39022         0.02192
C          10.91815         3.13064        -0.01743
C           9.28484         2.00419        -0.16236
C           7.66227         1.85925        -0.44040
H           2.84264         2.40532        -0.04174
H           5.64929         0.32040         0.44255
H           4.28570         4.09582        -0.01654
H           6.49403         1.96139         0.86505
H           6.74230         5.19946         0.03154
H           8.62188         6.02159         0.03056
H          10.87322         6.45914         0.03953
H          11.99411         2.60544        -0.00023
H          10.14280         1.27124        -0.01681

