%chk=OdC1CCC2dCCdCCdNCdC2OCN1O.chk
%NProcShared=20
# opt freq b3lyp/6-31g(2df,p)

Title Card Required 

0  1
O           1.82259         0.72765        -0.30307
C           2.91934         0.16619        -0.09595
C           2.88128        -1.34577         0.24985
C           4.30563        -1.49167         0.19024
C           5.32297        -2.44802         0.41235
C           5.30783        -3.62078        -0.20423
C           6.31267        -4.59536         0.05620
C           6.47638        -5.11148         1.27847
C           5.64239        -4.62136         2.40546
N           5.69141        -3.46125         2.98552
C           6.50264        -2.43498         2.48583
C           6.28297        -1.81610         1.29020
O           6.53614        -0.40798         1.03177
C           5.91636         0.37692        -0.18976
N           4.26746         0.89847        -0.13624
O           4.02792         1.98819        -1.05106
H           2.43468        -1.98410        -0.51277
H           2.50203        -1.57379         1.24961
H           4.47393        -0.80078         1.03944
H           4.53158        -1.20956        -0.84760
H           4.50575        -3.84075        -0.90436
H           6.96294        -4.84535        -0.77148
H           7.23325        -5.84220         1.50846
H           4.89469        -5.35841         2.76588
H           7.15852        -2.01385         3.24087
H           6.10990        -0.21584        -1.09937
H           6.53525         1.27903        -0.30300
H           3.54709         2.63408        -0.49432

