%chk=OdCc1cc2nc3nnccccn-3cccccccc-2n1.chk
%NProcShared=20
# opt freq b3lyp/6-31g(2df,p)

Title Card Required 

0  1
O           0.88825        -0.75557         1.02887
C           2.03921        -0.65366         0.63065
C           2.28273        -1.59366        -0.58957
C           2.01061        -1.63776        -2.27004
C           3.09358        -1.92508        -3.01554
N           3.21084        -2.03250        -4.60095
C           2.56116        -2.07574        -5.88675
N           3.40272        -2.90088        -6.56695
N           2.74926        -2.75481        -7.49364
C           2.47385        -3.02979        -8.67795
C           1.03434        -2.32897        -8.84283
C           1.16742        -2.49207       -10.25501
C           0.98777        -1.63707        -8.88678
N           1.15271        -1.48897        -6.93110
C           0.71287        -0.77357        -5.30019
C           0.09488        -0.05964        -4.15766
C           0.10561         0.36287        -2.46014
C          -0.55541         1.11803        -1.47558
C           0.62057         1.40970        -0.07772
C           2.13851         1.32296        -0.52849
C           3.49665         0.24713        -1.37465
C           3.79876        -1.18758        -1.78381
N           3.50857        -1.98023        -0.55242
H           2.83605         0.28423         0.93256
H           1.87342        -0.66591        -2.72824
H           3.13276        -3.54906        -9.32631
H          -0.24934        -1.41289        -8.53621
H           1.79987        -3.21800       -10.92460
H          -0.07209        -1.61817        -9.95937
H           1.55821        -1.05703        -4.63516
H          -0.75896         0.53457        -4.14616
H           0.84558        -0.01586        -1.79160
H          -1.44450         1.72805        -1.72897
H           0.17815         1.52616         1.03151
H           1.11568         1.33205        -0.91218
H           4.56532        -0.37375        -0.94422

