%chk=OdCCdC1CdCCdCCdCCdCCdNCdC1.chk
%NProcShared=20
# opt freq b3lyp/6-31g(2df,p)

Title Card Required 

0  1
O           1.18193         0.03873        -0.14398
C           2.76271         0.26774        -0.31801
C           4.63333         1.34420        -1.13604
C           6.60947         1.99160        -1.62802
C           5.16658         2.21981        -1.80144
C           6.56279         2.33617        -1.88987
C           7.29909         3.36207        -2.66948
C           8.64988         3.75075        -2.96485
C           9.04877         4.60740        -3.61584
C           9.69669         3.92015        -3.09358
C          10.98243         5.17701        -4.04871
C          12.70447         4.33466        -3.40858
C          12.67507         6.14055        -4.78092
N          12.72408         4.91226        -3.84752
C          11.02030         3.78012        -2.98717
C           9.07920         2.67166        -2.14482
H           2.84805        -0.72375         0.43545
H           2.92246         1.68594        -1.39574
H           4.60779         2.86990        -2.29547
H           7.83653         1.97994        -1.61916
H           6.67946         3.90527        -3.08227
H          10.14293         2.69372        -2.16158
H           8.74817         5.15675        -4.03331
H          11.12500         2.87526        -2.29954
H          10.93676         6.06173        -4.72103
H          13.82697         4.23121        -3.32996
H          13.21316         6.97719        -5.41671
H          12.18925         5.13841        -4.01937
H           8.64748         1.40130        -1.17944

