%chk=OdCCC1dN[C]d[SH]CdCCdC1.chk
%NProcShared=20
# opt freq b3lyp/6-31g(2df,p)

Title Card Required 

0  2
O           1.03018         0.10969        -0.08892
C           2.26404         0.07800        -0.10557
C           3.08335         1.01906        -0.94604
C           4.57319         0.80610        -0.81845
N           5.01590        -0.37447        -0.50068
C           6.26319        -0.40153        -0.01766
S           7.53555        -0.03446         0.86182
C           6.54357         1.11265         1.85779
C           6.02571         2.23906         1.33229
C           6.08624         2.64161        -0.05819
C           5.43399         2.01896        -1.05327
H           2.80437        -0.63533         0.53766
H           2.84827         2.03486        -0.60274
H           2.79490         0.91240        -1.99334
H           8.10219         0.84191         0.05973
H           6.32836         0.87031         2.89507
H           5.44627         2.90161         1.97375
H           6.72241         3.49471        -0.28475
H           5.53668         2.32780        -2.08827

