%chk=OdCc1cncncccccc2ccc1-2.chk
%NProcShared=20
# opt freq b3lyp/6-31g(2df,p)

Title Card Required 

0  1
O           3.84681        -0.69836        -1.65858
C           5.45242        -1.04194        -2.38909
C           7.52434        -1.81978        -4.04249
C           6.00050        -1.03284        -2.36925
N           5.75156        -1.65006        -3.68036
C           7.00403        -1.04053        -2.38531
N           8.10802        -1.04819        -2.40163
C           8.98945        -1.34195        -3.02582
C           9.22864        -1.80229        -4.00206
C          10.90238        -1.88336        -4.17635
C          11.43239        -2.34029        -5.14667
C          12.93807        -2.37343        -5.21454
C          11.75043        -2.66566        -5.82975
C          13.62890        -2.98663        -6.52236
C          11.69117        -3.00816        -6.57095
C           9.48921        -2.42056        -5.32009
H           4.21248        -0.41628        -1.05923
H           5.37430        -0.30176        -0.81587
H           7.15608        -0.58167        -1.41056
H           9.45818        -1.05378        -2.41365
H           8.20660        -2.40191        -5.27715
H          11.48395        -1.59342        -3.56013
H          10.42560        -2.98722        -6.52130
H          13.68888        -2.13162        -4.70528
H          15.34490        -2.79000        -6.10290
H          13.41567        -3.27938        -7.14314

