%chk=OdCC1dCCdCCdCCdCCqdOrNS1.chk
%NProcShared=20
# opt freq b3lyp/6-31g(2df,p)

Title Card Required 

0  1
O           1.42818         0.27106        -0.16507
C           2.93823         0.74393        -0.65545
C           4.33366         2.00597        -1.96421
C           4.54883         1.00870        -0.93002
C           5.44319         1.69749        -1.64431
C           6.71412         1.74711        -1.69577
C           7.88152         2.54604        -2.52427
C           9.09667         2.44083        -2.41517
C           8.56619         3.14961        -3.15019
C          10.19281         3.40186        -3.41177
C          10.88397         4.59836        -4.65257
O          10.91138         5.43331        -5.51842
N           9.11144         4.03530        -4.06866
S           6.44579         3.34202        -3.34971
H           2.94337        -0.40004         0.53086
H           5.00812         0.34103        -0.23763
H           5.47716         2.45982        -2.43486
H           7.17040         1.17408        -1.10152
H           7.64300         3.76698        -3.79041
H           9.43727         1.91403        -1.86887
H           8.11851         4.44036        -4.48871
H          11.28617         3.08565        -3.08386
H          10.77175         4.24592        -4.28707

