%chk=ONc1ccnccc2cqc3c1dN[C]Cd3OrdCCd2.chk
%NProcShared=20
# opt freq b3lyp/6-31g(2df,p)

Title Card Required 

0  1
O           1.93557        -0.21171        -0.65384
N           3.75671        -0.36763        -1.37132
C           5.34109        -0.65391        -2.68866
C           4.85613        -0.32699        -1.18431
C           5.52013        -0.57967        -2.34708
N           6.58867        -0.36127        -1.34204
C           6.99109        -0.59628        -2.42348
C           8.11786        -0.63564        -2.60461
C           8.93863        -1.11156        -4.79465
C          10.71210        -1.13307        -4.89364
C           9.65918        -0.89510        -3.79857
C           7.48292        -0.92682        -3.94452
N           9.37101        -0.79198        -3.32405
C          10.10854        -0.49376        -1.95173
C          11.04302        -0.67774        -2.79835
O          11.83154        -0.39017        -1.47503
C          10.95505        -1.40850        -6.16107
C           9.25613        -1.41426        -6.18757
H           1.25653         0.03260         0.47038
H           3.57179        -0.07367        -0.01862
H           5.29020        -0.11102        -0.19051
H           4.60213        -0.89891        -3.81608
H           6.12142        -0.91181        -3.87544
H           8.57391        -0.45710        -1.78305
H          11.34214        -0.19556        -0.57953
H          12.28226        -1.48698        -6.52217
H           8.22322        -1.51350        -6.64424

