%chk=ONCCdCc1ccc2cqn1rCdCNdNC2.chk
%NProcShared=20
# opt freq b3lyp/6-31g(2df,p)

Title Card Required 

0  1
O           1.03324         0.01291        -0.06962
N           2.48221         0.00758         0.09200
C           2.93550         1.32280        -0.39273
C           4.43615         1.36907        -0.40490
C           5.17195         2.43053        -0.78963
C           6.64348         2.40832        -0.81569
C           7.31470         1.31381        -1.32833
C           8.70039         1.32961        -1.32589
C           9.41503         2.43426        -0.82807
C           8.66769         3.49794        -0.35812
N           7.29643         3.50283        -0.35884
C           9.24549         4.71597         0.18211
C          10.53046         5.05068         0.33617
N          11.69185         4.41098         0.07281
N          11.87593         3.28428        -0.39329
C          10.90509         2.33302        -0.91558
H           0.75599        -0.71618         0.52057
H           2.75825        -0.68143        -0.61044
H           2.54607         2.11232         0.25854
H           2.55760         1.48064        -1.41022
H           4.94427         0.47084        -0.05941
H           4.70553         3.35955        -1.10303
H           6.78127         0.45913        -1.72836
H           9.23191         0.46719        -1.72342
H           8.50794         5.44521         0.50892
H          10.71655         6.03000         0.77478
H          11.17125         1.37718        -0.44302
H          11.14299         2.21317        -1.98078

