%chk=SCC1dCCdCCdCCdCNdCCdCCdCCdC1.chk
%NProcShared=20
# opt freq b3lyp/6-31g(2df,p)

Title Card Required 

0  1
S           1.78212        -0.20761        -0.50893
C           4.18448        -0.58593        -2.07526
C           5.84339        -1.13171        -4.33483
C           5.18550        -0.65805        -2.37363
C           5.17094        -0.92034        -3.46009
C           6.83092        -0.81801        -3.03627
C           7.45867        -1.11991        -4.28611
C           8.51466        -1.23744        -4.77270
C           9.26187        -1.55408        -6.08370
C          10.34979        -1.60486        -6.29385
N          10.97620        -1.81049        -7.14526
C          11.94904        -1.87449        -7.41016
C          12.23505        -2.09409        -8.31952
C          13.44120        -2.31204        -9.22177
C          13.90162        -2.63751       -10.56922
C          12.03910        -2.41823        -9.66124
C           9.71319        -2.04758        -8.12672
C           7.69701        -1.63216        -6.40679
H           0.59221         0.19681         1.16545
H           3.49806        -0.74537        -0.24562
H           3.49806         0.39105        -0.52011
H           5.34041        -0.29935        -0.88873
H           4.10815        -1.03033        -3.91524
H           7.23942        -0.63436        -2.27576
H           6.99449        -1.32136        -5.12013
H           9.03739        -1.06106        -4.04241
H           8.51528        -1.88678        -7.46114
H          10.86809        -1.44509        -5.63237
H          12.73620        -1.82491        -7.20491
H          11.01086        -2.35208        -9.38765
H          14.46811        -2.22880        -8.87712
H          13.84205        -2.99557       -12.05172
H          14.06232        -2.56464       -10.26755
H          10.11183        -2.45874        -9.82906
H           6.06772        -1.49172        -5.82540

