%chk=SdC1CdCCqNdCCSrdCCdC2CdC12.chk
%NProcShared=20
# opt freq b3lyp/6-31g(2df,p)

Title Card Required 

0  1
S           3.91981         0.27593        -0.09297
C           5.49462        -1.36334         0.32057
C           3.74011        -1.43359         0.03638
C           5.01365        -1.70289         0.00656
C           4.93331        -3.21845         0.08282
N           4.45554        -4.37802         0.22197
C           3.22298        -4.23928         0.21041
C           2.46755        -5.40729         0.29728
S           0.74205        -4.90102         0.21788
C           6.13224        -3.05537         0.07817
C           7.37748        -3.74267         0.17331
C           8.72262        -2.74753         0.14870
C           8.68369        -3.89660         0.29155
C           7.65024        -2.34639         0.03518
H           2.79864        -1.91423         0.05833
H           5.64093        -0.10618        -0.14789
H           2.64686        -3.37574         0.14367
H           2.85012        -5.77864         1.24141
H           2.84942        -5.89302        -0.59919
H           0.60509        -4.08870         1.29556
H           6.73866        -1.40498        -0.12408
H           7.03128        -4.88476         0.25364
H           9.00555        -5.10114         0.20047

