%chk=SdC1C2dCCdCSC1dCCdCCdC2.chk
%NProcShared=20
# opt freq b3lyp/6-31g(2df,p)

Title Card Required 

0  1
S           1.70688        -0.19984         0.61599
C           3.03512        -1.26640         0.51528
C           3.18968        -2.25757        -0.60631
C           4.47452        -2.38145        -1.06133
C           5.14184        -1.32494        -1.77416
C           5.09804        -0.15911        -1.22841
S           5.36223        -0.10565         0.72940
C           4.18708        -1.56148         1.52310
C           4.69749        -2.80360         2.10682
C           4.45441        -4.44632         2.04225
C           3.28415        -4.96408         1.59821
C           3.23809        -4.48847         0.23371
C           2.50443        -3.37386         0.03490
H           5.28400        -2.72588        -0.39127
H           5.66069        -1.61447        -2.71695
H           5.36575         0.69343        -1.91571
H           4.29571        -2.98355         3.14447
H           5.27705        -5.14091         1.74050
H           2.36849        -4.70003         2.13596
H           4.22811        -4.47940        -0.23110
H           1.86346        -3.08235         0.88915

