%chk=Sdc1ccccc2ccccccc-2s1.chk
%NProcShared=20
# opt freq b3lyp/6-31g(2df,p)

Title Card Required 

0  1
S           2.09638        -0.18154        -0.07400
C           4.40395        -0.63707        -0.15109
C           3.49155        -1.61781        -0.31710
C           4.77426        -1.61520        -0.31666
C           5.63542        -3.22232        -0.58867
C           7.34168        -3.32044        -0.60527
C           7.75241        -4.39559        -0.78725
C           8.97208        -3.50909        -0.63720
C           9.34209        -5.03331        -0.89519
C          11.07382        -3.83459        -0.69229
C          11.11286        -5.72819        -1.01280
C          12.65036        -5.75811        -1.01794
C          10.75232        -5.23373        -0.90320
C           9.02914        -3.61500        -0.69985
S           6.94800        -1.67802        -0.30795
H           2.77949        -2.27723        -0.42871
H           5.74629        -0.37046        -0.10598
H           4.77583        -3.71597        -0.67222
H           8.37189        -1.90857        -0.36631
H           9.87623        -2.53987        -0.47317
H           9.14751        -5.93287        -1.04744
H          12.23266        -3.78199        -0.68340
H          11.24582        -7.22024        -1.26533
H          13.88321        -5.27904        -0.93678
H          12.21457        -6.38261        -1.12403

