%chk=Sdc1cccc2ccccccc-2cs1.chk
%NProcShared=20
# opt freq b3lyp/6-31g(2df,p)

Title Card Required 

0  1
S           1.51031         0.19875         0.18964
C           3.51787         0.01376        -0.09154
C           3.44262        -0.78002        -1.29810
C           4.68300        -0.96506        -1.57934
C           5.79097        -1.43703        -2.29677
C           7.29101        -1.44704        -2.31187
C           7.38106        -2.19210        -3.44445
C           8.54782        -2.41145        -3.77787
C           9.50644        -2.90371        -4.52610
C          10.53001        -2.35438        -3.69105
C          11.47515        -2.82689        -4.40944
C          10.64495        -1.93040        -3.04412
C           9.11351        -1.07852        -1.75802
C           7.76998        -0.39228        -0.70464
S           5.78782         0.32642         0.38299
H           2.65583        -1.17474        -1.89807
H           5.43434        -0.62540        -1.06306
H           5.05447        -1.89331        -2.99031
H           6.80818        -2.64122        -4.12713
H           9.01327        -1.94761        -3.07285
H           9.14052        -3.44076        -5.34242
H          12.01263        -1.83531        -2.90210
H          11.33759        -3.60465        -5.59152
H          12.05486        -2.46923        -3.86571
H           7.91374         0.22605         0.23136

