%chk=SdNSS[SH]1C[SH]dCC1dS.chk
%NProcShared=20
# opt freq b3lyp/6-31g(2df,p)

Title Card Required 

0  1
S           1.31110         0.14015        -0.26094
N           2.79231        -0.04802        -0.07477
S           3.62074         0.90357        -1.23125
S           5.59060         0.50660        -0.82790
S           6.60005         1.54894        -2.30694
C           7.05001         3.14381        -1.71433
S           5.89472         4.45755        -2.25063
C           5.14934         3.43952        -3.55039
C           5.62085         2.04047        -3.63281
S           5.64553         1.26820        -5.09093
H           7.68520         0.87112        -2.71604
H           8.02916         3.37613        -2.14440
H           7.12533         3.13924        -0.62633
H           6.69481         5.20735        -2.97344
H           4.39919         3.79891        -4.26821

