%chk=SN1CdCS2dCC2dCNdCS1.chk
%NProcShared=20
# opt freq b3lyp/6-31g(2df,p)

Title Card Required 

0  1
S           1.31178         0.11271         0.30991
N           2.66836         0.67148         1.11528
C           3.53104         1.42818         0.36118
C           4.84270         1.26606         0.11966
S           5.73123         2.84120        -0.06252
C           6.81198         2.64488         1.16476
C           5.84466         2.84167         2.17319
C           4.61276         3.31476         2.37789
N           3.80682         3.28802         3.47715
C           2.77802         2.48262         3.38923
S           2.71112         0.79819         2.79767
H           0.56230         1.21710         0.40741
H           3.04636         2.36865         0.11964
H           5.37635         0.35014         0.35647
H           7.86234         2.39981         1.29761
H           4.05416         3.75707         1.56006
H           1.88623         2.82186         3.95031

