%chk=CC1CCCC1CCqNrCCC1NCC1C.chk
%NProcShared=20
# opt freq b3lyp/6-31g(2df,p)

Title Card Required 

0  1
C           1.69003         0.08432        -0.93038
C           0.85366         0.11235         0.34558
C          -0.13311         1.26624         0.42314
C          -1.29923         0.80808        -0.43315
C          -1.27556        -0.72481        -0.39371
C          -0.05369        -1.12860         0.45867
C          -0.49182        -1.49098         1.89775
C           0.64089        -2.03335         2.79092
N           1.72494        -1.08234         3.00932
C           0.12378        -2.39675         4.18644
C           1.27269        -2.90900         5.06313
C           0.78930        -3.17085         6.47494
N           1.22558        -4.49654         6.98791
C           1.51632        -3.86715         8.29487
C           1.66245        -2.51418         7.57683
C           1.07497        -1.28307         8.23402
H           2.38932         0.92652        -0.93518
H           1.08168         0.13850        -1.83588
H           2.28438        -0.83612        -0.97070
H           1.56700         0.25084         1.14581
H           0.29577         2.21774         0.09957
H          -0.46673         1.39630         1.46172
H          -1.15968         1.15667        -1.46236
H          -2.24684         1.21537        -0.06970
H          -1.15588        -1.10633        -1.41534
H          -2.21771        -1.13087        -0.01148
H           0.41998        -2.01879         0.02568
H          -1.26130        -2.27496         1.82961
H          -0.98504        -0.63901         2.38108
H           1.05469        -2.93508         2.32434
H           1.35035        -0.14901         3.15742
H           2.34985        -1.06481         2.20583
H          -0.65499        -3.16591         4.11348
H          -0.34204        -1.52077         4.65868
H           2.07624        -2.16330         5.10312
H           1.71187        -3.79932         4.59684
H          -0.28809        -3.00995         6.61373
H           2.06055        -4.85370         6.52141
H           2.42142        -4.23906         8.78220
H           0.67886        -3.92948         8.99744
H           2.70296        -2.32914         7.26853
H           0.03686        -1.44581         8.54047
H           1.09221        -0.43367         7.54245
H           1.65335        -1.00653         9.12045

