%chk=CC1CCCqCrCCqNrCCqCNrCC1.chk
%NProcShared=20
# opt freq b3lyp/6-31g(2df,p)

Title Card Required 

0  1
C           0.92528        -0.14601         0.44106
C           2.44075        -0.13474         0.25521
C           2.94971        -1.29586        -0.71542
C           1.86683        -2.11897        -1.50689
C           1.49134        -1.79443        -3.00780
C           2.71926        -1.98322        -3.92918
C           0.71888        -0.41699        -3.27437
C           1.66415         0.77055        -3.60334
N           2.69924         0.44718        -2.73476
C           1.25489         2.20785        -3.23237
C           2.08711         2.97135        -2.09383
C           3.56131         3.26723        -2.46639
N           4.24353         3.95713        -1.38163
C           1.90089         2.37385        -0.64758
C           2.95719         1.34155        -0.05663
H           0.55652        -1.10367         0.80914
H           0.42187         0.04427        -0.50600
H           0.60195         0.63110         1.13745
H           2.88432        -0.38574         1.22950
H           3.50517        -2.01084        -0.08968
H           3.76300        -0.96596        -1.37267
H           0.93522        -2.17422        -0.93999
H           2.22521        -3.15965        -1.50321
H           0.77314        -2.57684        -3.29365
H           3.57375        -1.34836        -3.67459
H           2.45680        -1.75294        -4.96549
H           3.11222        -2.99812        -3.86422
H           0.06424        -0.20452        -2.42347
H           0.02965        -0.55248        -4.11756
H           2.01858         0.69889        -4.63416
H           2.31185         0.51735        -1.81960
H           3.62684         0.83840        -2.80472
H           0.18742         2.24130        -2.98036
H           1.36443         2.80283        -4.15001
H           1.59603         3.95729        -2.05395
H           3.61284         3.83732        -3.39889
H           4.17695         2.39545        -2.65364
H           3.90521         4.91015        -1.30653
H           5.24474         3.98194        -1.56256
H           0.88049         1.99202        -0.62120
H           1.86685         3.21755         0.05747
H           3.32588         1.76900         0.88735
H           3.86868         1.28891        -0.66316

