%chk=CC1dCCdCCdCCqCrCOCCCCCC1.chk
%NProcShared=20
# opt freq b3lyp/6-31g(2df,p)

Title Card Required 

0  1
C           2.82834        -0.36046        -0.37940
C           5.39133        -0.80748        -1.02250
C           3.47403        -0.77799        -1.08357
C           4.84635        -0.90362        -1.26131
C           5.40393        -1.60898        -2.44236
C           6.64433        -1.63440        -2.63034
C           7.59438        -2.21681        -3.51523
C           9.19227        -1.97933        -3.10052
C           9.65444        -2.66347        -1.70972
C           9.05114        -2.58895        -4.28820
O          10.62501        -1.46146        -3.90275
C          10.74863        -3.07042        -5.28692
C          13.12426        -3.02326        -4.88655
C          12.81948        -4.16717        -6.63200
C          12.76871        -3.40412        -5.08030
C          10.45343        -2.81486        -3.58394
C           8.07179        -1.68537        -2.11361
H           1.00789        -0.60501        -0.80348
H           1.18736         0.63779        -0.10188
H           1.18362        -0.54178         0.62462
H           2.68695        -1.21992        -1.80419
H           6.38474        -1.23419        -1.46665
H           4.75259        -1.87365        -2.87455
H           7.74500        -0.86056        -1.27381
H           6.93743        -2.53632        -3.94129
H           9.43585        -0.88783        -3.00415
H           9.26856        -3.65516        -1.69813
H           9.28664        -2.10886        -0.84936
H          10.71167        -2.63551        -1.71214
H           9.23839        -2.18771        -5.15654
H           9.23304        -3.74020        -4.18811
H          11.10601        -2.83155        -6.31652
H          11.05124        -4.49090        -5.31063
H          13.51394        -3.98908        -4.10711
H          13.47027        -2.10575        -5.36549
H          13.19169        -3.65086        -7.49926
H          13.18095        -5.20244        -6.55863
H          14.54046        -4.22812        -5.51823
H          14.49974        -3.23517        -6.10792
H          11.82244        -3.77338        -4.67863
H          11.87116        -3.02464        -5.10260
H           6.96478        -0.21351        -1.35448
H           7.02304        -1.16791        -0.55878

