%chk=CCC1OCqCCCqOrCOOrCCC1C.chk
%NProcShared=20
# opt freq b3lyp/6-31g(2df,p)

Title Card Required 

0  1
C           0.85757         0.01253         0.17032
C           2.37433        -0.01325         0.11878
C           3.04008        -1.18506         0.87400
O           2.34467        -2.43007         0.72288
C           2.35165        -2.95656        -0.60511
C           1.58210        -4.28194        -0.60891
C           1.52038        -4.84651        -2.02777
C           0.75650        -6.15561        -2.12723
O          -0.58627        -5.94806        -1.68245
C           0.78704        -6.64625        -3.57877
O           0.13171        -7.90873        -3.65600
O           0.16507        -8.27699        -5.06091
C           3.77765        -3.14282        -1.13082
C           4.58769        -1.86874        -0.99019
C           4.51708        -1.34118         0.44677
C           5.27751        -2.28939         1.38221
H           0.49112         0.83654        -0.45128
H           0.49581         0.15430         1.19023
H           0.41953        -0.90580        -0.22985
H           2.77404         0.92961         0.51240
H           2.64654        -0.02661        -0.93990
H           3.00194        -0.94833         1.94540
H           1.81490        -2.26097        -1.25804
H           0.57214        -4.11676        -0.21118
H           2.05492        -5.00092         0.07265
H           2.53066        -5.03058        -2.40623
H           1.05753        -4.09185        -2.67717
H           1.20594        -6.90905        -1.47309
H          -1.00266        -5.30378        -2.26789
H           1.82288        -6.76304        -3.92221
H           0.27208        -5.93508        -4.23559
H          -0.35254        -9.09585        -4.95841
H           3.77219        -3.41909        -2.18819
H           4.26866        -3.95850        -0.58753
H           4.19057        -1.12967        -1.69536
H           5.62200        -2.04459        -1.30055
H           5.01187        -0.36343         0.48727
H           4.81490        -3.27988         1.44213
H           5.31711        -1.88538         2.39735
H           6.30609        -2.42390         1.02944

