%chk=CCC1dCCCCCqdNOrN1.chk
%NProcShared=20
# opt freq b3lyp/6-31g(2df,p)

Title Card Required 

0  1
C           1.02431         0.04567        -0.06651
C           2.54414         0.01033        -0.01369
C           3.04238        -1.01376         0.98910
C           2.94042        -2.30999         0.71973
C           3.29085        -3.44578         1.65302
C           3.26473        -3.08070         3.14513
C           4.53199        -2.33454         3.56041
C           4.75799        -1.08910         2.71928
N           5.98921        -0.67421         2.59308
O           6.05623         0.42321         1.72098
N           3.63624        -0.52779         2.14969
H           0.68701         0.74324        -0.83898
H           0.60660         0.36316         0.89399
H           0.61175        -0.94025        -0.30722
H           2.93310         1.01006         0.20914
H           2.93531        -0.24962        -1.00702
H           2.51089        -2.62382        -0.23617
H           4.27220        -3.84420         1.37210
H           2.56055        -4.24424         1.48839
H           3.17706        -3.99428         3.74271
H           2.37401        -2.47902         3.37665
H           5.39828        -2.99704         3.45368
H           4.47087        -2.03396         4.61213
H           7.01291         0.48611         1.53994
H           3.36182         0.38622         2.47233

