%chk=CCC1CCCCCqCrCCC1C.chk
%NProcShared=20
# opt freq b3lyp/6-31g(2df,p)

Title Card Required 

0  1
C           0.78986        -0.07913        -0.11934
C           2.28871        -0.25502        -0.15350
C           3.00399        -0.35577        -1.51446
C           2.72491         0.85967        -2.42125
C           3.34263         2.24239        -2.10909
C           3.27455         2.80177        -0.68037
C           4.54198         2.94367         0.21615
C           5.54856         1.81677         0.63568
C           6.45894         1.54820        -0.50760
C           4.96429         0.46549         1.09948
C           5.05929        -0.76202         0.10164
C           4.51801        -0.74623        -1.40347
C           5.41628        -0.25985        -2.61608
H           0.50504         0.20530         0.90197
H           0.28898        -1.01379        -0.36880
H           0.44723         0.72133        -0.77546
H           2.52901        -1.10174         0.49524
H           2.65632         0.62413         0.33951
H           2.53065        -1.21531        -2.01473
H           1.63847         0.98620        -2.49532
H           3.00608         0.58922        -3.45009
H           2.75988         2.92916        -2.74451
H           4.34676         2.35853        -2.51791
H           2.42778         2.39785        -0.12763
H           2.94749         3.84426        -0.82119
H           4.19133         3.40387         1.14771
H           5.15335         3.72110        -0.26886
H           6.16170         2.21763         1.45483
H           5.72448         1.32930        -1.20845
H           7.13400         0.68987        -0.37812
H           7.00616         2.39097        -0.95361
H           3.98335         0.62151         1.54856
H           5.52670         0.15418         1.99657
H           4.52635        -1.58600         0.60977
H           6.09092        -1.13495         0.10406
H           4.53404        -1.82610        -1.63119
H           5.50474         0.81380        -2.80403
H           5.00264        -0.58149        -3.57618
H           6.44607        -0.62159        -2.53483

