%chk=CCCCCCCqCCOrCC1CCC1.chk
%NProcShared=20
# opt freq b3lyp/6-31g(2df,p)

Title Card Required 

0  1
C           0.98987        -0.03009        -0.10700
C           2.50152         0.00826        -0.14607
C           3.08887        -0.46510         1.16445
C           4.61179        -0.35043         1.10241
C           5.14634        -0.88585         2.39695
C           6.64487        -1.04071         2.47818
C           7.03000        -1.67432         3.82528
C           6.42135        -3.08520         4.05358
C           4.92575        -3.30809         4.25037
O           4.73566        -4.67346         4.63219
C           8.58171        -1.69830         3.92612
C           9.12787        -2.20652         5.26393
C           8.28965        -1.95214         6.54361
C           8.60600        -3.38265         7.00115
C           9.10492        -3.72604         5.58304
H           0.58890         0.34117        -1.05291
H           0.60695         0.59734         0.70401
H           0.62812        -1.05157         0.04818
H           2.84335         1.02924        -0.34395
H           2.86853        -0.62921        -0.95861
H           2.78742        -1.50740         1.35014
H           2.69950         0.12190         2.00677
H           4.93750         0.67872         0.93867
H           4.98878        -0.97212         0.28100
H           4.73438        -1.87590         2.39195
H           4.75028        -0.34479         3.26553
H           7.11646        -0.05618         2.37072
H           7.00562        -1.66792         1.65482
H           6.65488        -0.99689         4.60231
H           6.77646        -3.43518         5.01540
H           6.82145        -3.78216         3.30841
H           4.30854        -3.22403         3.36431
H           4.53409        -2.65257         5.03031
H           4.90904        -5.19396         3.83916
H           8.95148        -0.67205         3.78245
H           9.01234        -2.28616         3.10503
H          10.15852        -1.83703         5.38649
H           7.21348        -1.79739         6.41770
H           8.64742        -1.13896         7.18001
H           7.72762        -3.94450         7.33540
H           9.38346        -3.43212         7.76595
H           8.43257        -4.35043         4.98827
H          10.07054        -4.23601         5.53694

