%chk=CCCCOCC1CCCqCCrC1.chk
%NProcShared=20
# opt freq b3lyp/6-31g(2df,p)

Title Card Required 

0  1
C           1.00955        -0.05688        -0.04814
C           2.52642        -0.05704        -0.04628
C           3.08685        -0.17881        -1.45703
C           4.60695        -0.18166        -1.42339
O           5.07830        -0.31675        -2.75510
C           6.50147        -0.32344        -2.81172
C           6.94850        -0.44454        -4.26115
C           6.41890        -1.68483        -4.97362
C           6.62522        -1.36482        -6.44996
C           6.51488         0.16809        -6.57211
C           7.70511         0.76796        -7.33100
C           7.57868         2.27466        -7.52335
C           6.40490         0.68548        -5.13278
H           0.63304         0.02967         0.97543
H           0.61959        -0.98422        -0.47917
H           0.61982         0.78487        -0.62892
H           2.88807        -0.89036         0.56740
H           2.88922         0.86794         0.41693
H           2.73311         0.64758        -2.08698
H           2.72721        -1.09708        -1.93871
H           4.97229        -1.02176        -0.82283
H           4.97817         0.75660        -0.99596
H           6.88797        -1.16550        -2.22709
H           6.88675         0.61084        -2.38488
H           8.04410        -0.44094        -4.29986
H           5.35442        -1.84304        -4.77406
H           6.95441        -2.59212        -4.67178
H           5.86973        -1.87053        -7.06260
H           7.60561        -1.72543        -6.77824
H           5.59481         0.42115        -7.11485
H           7.77989         0.29573        -8.31747
H           8.63980         0.54940        -6.79993
H           6.66587         2.52132        -8.07443
H           8.43507         2.65656        -8.08642
H           7.55354         2.81104        -6.57095
H           5.35117         0.89042        -4.91410
H           6.95437         1.61118        -4.93927

