%chk=CCCCNCqCCCrC1qCrCC1O.chk
%NProcShared=20
# opt freq b3lyp/6-31g(2df,p)

Title Card Required 

0  1
C           0.97663         0.04231        -0.09641
C           2.48152        -0.06168        -0.10816
C           2.91221        -1.43969         0.41475
C           4.41830        -1.45616         0.43945
N           5.05902        -2.61820         1.01284
C           6.52576        -2.45918         1.02947
C           7.08380        -1.21732         1.81524
C           6.82161         0.19477         1.28604
C           7.36454         1.26470         2.20951
C           7.06261        -3.74877         1.69911
C           6.98896        -3.70245         3.21329
C           6.86146        -5.13823         1.09832
C           8.17037        -4.44496         0.91448
O           9.29913        -4.95183         1.64300
H           0.65461         1.00138        -0.50884
H           0.60195        -0.04063         0.92845
H           0.54340        -0.76397        -0.69380
H           2.90443         0.74132         0.51411
H           2.86815         0.09937        -1.12238
H           2.50892        -2.25058        -0.19431
H           2.54556        -1.55946         1.44283
H           4.57305        -0.66976         1.15065
H           4.84153        -1.20085        -0.54087
H           4.81053        -3.44799         0.47872
H           6.89086        -2.40598        -0.00551
H           8.17319        -1.34312         1.90062
H           6.69313        -1.24139         2.83932
H           5.77746         0.46951         1.29640
H           7.16329         0.29942         0.25392
H           6.95763         1.12783         3.21933
H           7.01534         2.24028         1.85425
H           8.45210         1.25699         2.25170
H           6.00598        -3.31489         3.51325
H           7.75169        -3.02818         3.61597
H           7.10752        -4.67166         3.70137
H           6.21190        -5.25217         0.23814
H           6.84365        -6.00527         1.75113
H           8.37209        -4.12417        -0.10237
H           9.07589        -5.28743         2.51378

