%chk=CCCC1C2CCCC3C1qCrC23C.chk
%NProcShared=20
# opt freq b3lyp/6-31g(2df,p)

Title Card Required 

0  1
C           0.55458        -0.12813         0.11612
C           2.05554        -0.21592         0.03916
C           2.80759        -1.28570         0.81097
C           4.35080        -1.10554         0.84884
C           5.64873        -1.58032        -0.06678
C           6.60071        -2.67135         0.42481
C           6.78611        -2.49574         1.93514
C           7.30799        -1.07271         2.21021
C           6.38299         0.09741         1.73538
C           4.97718         0.26078         0.66357
C           4.61914         0.98416        -0.69702
C           6.30197        -0.21915         0.29411
C           7.30519         0.68081        -0.39917
H           0.24709         0.74515        -0.47781
H           0.20578         0.02277         1.13843
H           0.09672        -1.01154        -0.32778
H           2.39704         0.76922         0.38226
H           2.26057        -0.39055        -1.02032
H           2.56823        -2.28216         0.43111
H           2.43108        -1.24931         1.84543
H           4.49290        -1.33588         1.92167
H           5.25272        -1.84703        -1.05420
H           7.56812        -2.52516        -0.07927
H           6.26642        -3.67911         0.16424
H           7.47771        -3.25866         2.30900
H           5.84560        -2.66204         2.46783
H           8.26762        -0.99572         1.66577
H           7.58351        -0.96027         3.26556
H           6.65871         1.02366         2.18651
H           3.63480         0.78208        -1.08538
H           5.16084         0.57689        -1.57033
H           4.69513         2.06840        -0.67725
H           7.15453         0.88839        -1.46105
H           8.33829         0.36733        -0.22666
H           7.24824         1.67935         0.08119

