%chk=CCCCCCqCrCCCqNrCCCN.chk
%NProcShared=20
# opt freq b3lyp/6-31g(2df,p)

Title Card Required 

0  1
C           0.88410         0.05434        -0.01863
C           2.39792         0.06560        -0.00048
C           2.91498         1.22870         0.83730
C           4.43236         1.22647         0.82238
C           4.99745         2.39919         1.60933
C           6.53259         2.41646         1.56963
C           7.06336         2.53098         0.13653
C           7.02384         3.57551         2.44241
C           8.54668         3.62036         2.53367
C           9.04871         4.78247         3.38893
N           8.57736         4.66813         4.76772
C          10.58202         4.79999         3.35845
C          11.14008         5.97542         4.15566
C          12.66070         5.96631         4.14625
N          13.15012         7.08255         4.94264
H           0.51976        -0.78510        -0.61638
H           0.49707         0.98185        -0.45221
H           0.48780        -0.04383         0.99658
H           2.77575         0.14712        -1.02722
H           2.77160        -0.88169         0.40592
H           2.54840         1.15227         1.86730
H           2.54569         2.17657         0.42636
H           4.75357         1.27870        -0.22170
H           4.81634         0.28678         1.23743
H           4.65618         2.33033         2.65143
H           4.60249         3.34344         1.21292
H           6.90054         1.47696         2.00348
H           6.71942         3.45955        -0.33048
H           6.74521         1.69150        -0.48519
H           8.15497         2.51099         0.10351
H           6.59416         3.45369         3.44391
H           6.64929         4.52982         2.05086
H           8.97503         3.74506         1.53352
H           8.92045         2.66378         2.92105
H           8.67661         5.72266         2.96472
H           8.84941         3.76837         5.15289
H           7.55776         4.70155         4.79689
H          10.92638         4.87284         2.31747
H          10.97845         3.85492         3.75213
H          10.78764         5.92516         5.19261
H          10.75999         6.91207         3.72901
H          13.03468         6.04914         3.12011
H          13.03366         5.02700         4.56656
H          12.80675         7.95626         4.55397
H          14.16838         7.11488         4.89574

