%chk=CCCC1CqCrCCCCCCCqCCrC1O.chk
%NProcShared=20
# opt freq b3lyp/6-31g(2df,p)

Title Card Required 

0  1
C           0.90141        -0.11069        -0.29212
C           2.40416        -0.08571        -0.59597
C           3.07302        -1.27356         0.13775
C           4.60455        -1.30189         0.47065
C           5.17727        -0.03801         1.22446
C           6.22094         0.61019         0.29422
C           4.10993         0.96121         1.73145
C           3.66033         0.99900         3.19795
C           2.86155        -0.25942         3.64585
C           3.84461        -1.38388         3.91579
C           3.34163        -2.80378         4.13562
C           4.10246        -3.86273         3.27744
C           3.99508        -3.59659         1.74803
C           3.85362        -4.89767         0.91543
C           3.55464        -4.64238        -0.56784
C           5.10907        -2.67703         1.12374
O           6.27516        -2.54839         1.94216
H           0.43009         0.82878        -0.59309
H           0.70235        -0.23096         0.78249
H           0.41824        -0.93888        -0.81577
H           2.75272         0.91404        -0.33098
H           2.60455        -0.13603        -1.66628
H           2.83356        -2.13874        -0.47831
H           2.53052        -1.41917         1.07153
H           5.07025        -1.32375        -0.52737
H           5.78116        -0.30416         2.09384
H           5.79090         0.88669        -0.67323
H           7.04224        -0.09628         0.10294
H           6.66120         1.49835         0.75431
H           3.15818         0.68452         1.33972
H           4.30774         1.96353         1.33786
H           2.96798         1.84933         3.26733
H           4.50380         1.20629         3.85912
H           2.14197        -0.54995         2.87126
H           2.26054        -0.03751         4.53109
H           4.54357        -1.09046         4.70362
H           4.41201        -1.41830         3.01811
H           2.26843        -2.87841         3.93161
H           3.48383        -3.05537         5.19347
H           3.66085        -4.83977         3.51097
H           5.14700        -3.93173         3.60081
H           3.01116        -3.14974         1.63579
H           3.01715        -5.48339         1.31575
H           4.75730        -5.50720         1.00905
H           2.58853        -4.14344        -0.68811
H           3.50134        -5.58043        -1.12335
H           4.31408        -4.02658        -1.05977
H           5.55798        -3.22915         0.29235
H           6.05094        -2.14614         2.80992

