%chk=CCCC1CCCOCCCqSrCNC1.chk
%NProcShared=20
# opt freq b3lyp/6-31g(2df,p)

Title Card Required 

0  1
C           0.91072         0.04636         0.05026
C           2.42320         0.02036         0.04536
C           3.01396         1.42097        -0.13405
C           4.55629         1.41998        -0.14145
C           5.10339         0.58418         1.04586
C           6.47084         1.05008         1.53928
C           7.59436         0.10748         1.10908
O           8.88574         0.71566         1.06176
C           8.99840         1.80872         0.14513
C           8.83967         1.38249        -1.31513
C           8.17080         2.36644        -2.30325
S           7.80868         4.05051        -1.65276
C           6.90762         1.73615        -2.96330
N           5.65621         2.04144        -2.25489
C           5.10576         0.91760        -1.50007
H           0.52758        -0.96577         0.20980
H           0.52430         0.42110        -0.90080
H           0.53892         0.68353         0.85879
H           2.78187        -0.64730        -0.74467
H           2.74368        -0.41278         0.99874
H           2.67023         2.06352         0.68793
H           2.63729         1.87989        -1.05742
H           4.85483         2.46741         0.00988
H           5.12558        -0.47994         0.77813
H           4.41818         0.68025         1.89610
H           6.46278         1.07341         2.63637
H           6.62427         2.08952         1.24952
H           7.38060        -0.37596         0.15473
H           7.65817        -0.71134         1.83507
H           9.99647         2.23984         0.28241
H           8.31047         2.58652         0.46099
H           8.36751         0.40057        -1.39915
H           9.85260         1.18094        -1.69389
H           8.89199         2.54206        -3.10964
H           6.81696         3.63628        -0.83737
H           7.04065         0.65768        -3.11644
H           6.82395         2.14213        -3.98084
H           4.96707         2.39087        -2.91372
H           5.84826         0.13573        -1.34763
H           4.31114         0.46762        -2.10878

