%chk=CCCCqCrCCCqCCCrqCCCrCOC.chk
%NProcShared=20
# opt freq b3lyp/6-31g(2df,p)

Title Card Required 

0  1
C           0.96995         0.06960         0.01101
C           2.48194         0.14349        -0.01712
C           3.10897        -0.84614         0.94703
C           4.65144        -0.73665         0.94791
C           5.15982         0.60952         1.43262
C           5.16021        -1.84140         1.85185
C           6.66238        -2.08505         1.88569
C           7.12152        -3.18770         2.89114
C           6.67474        -2.85620         4.35023
C           7.14008        -1.48422         4.86279
C           6.61561        -1.20570         6.25854
C           6.60588        -4.61756         2.47026
C           5.09290        -4.86773         2.51465
C           4.64598        -6.23870         2.06677
C           8.68146        -3.20754         2.83121
O           9.19754        -4.16545         3.75458
C          10.61635        -4.16674         3.77658
H           0.55789         0.82248        -0.66624
H           0.59177         0.26968         1.01837
H           0.61450        -0.91571        -0.30479
H           2.77737         1.16066         0.25051
H           2.84777        -0.05714        -1.02960
H           2.80600        -1.86422         0.65123
H           2.71616        -0.70257         1.96177
H           5.01448        -0.92632        -0.06765
H           4.80813         0.81228         2.44723
H           4.83340         1.41542         0.77261
H           6.25190         0.63376         1.43481
H           4.70783        -2.68990         1.36199
H           4.73417        -1.74392         2.85050
H           7.17828        -1.14958         2.13457
H           7.00332        -2.34395         0.87782
H           7.04090        -3.63403         5.03274
H           5.58396        -2.89243         4.43297
H           6.78597        -0.68348         4.20598
H           8.23269        -1.42939         4.88704
H           5.52148        -1.19842         6.26655
H           6.96646        -0.22665         6.59907
H           6.96755        -1.96347         6.96413
H           7.07636        -5.36880         3.11943
H           6.96792        -4.82415         1.45528
H           4.58205        -4.27744         1.77142
H           4.66722        -4.61520         3.48583
H           4.98959        -6.43001         1.04602
H           3.54889        -6.24925         2.04505
H           4.99751        -7.02185         2.73726
H           9.09409        -2.21957         3.07171
H           9.02140        -3.46086         1.81990
H          10.94691        -4.94167         4.47287
H          10.99216        -3.19985         4.12436
H          11.01369        -4.39310         2.78299

