%chk=CCCCCCCNqCrCCOCqCrOC.chk
%NProcShared=20
# opt freq b3lyp/6-31g(2df,p)

Title Card Required 

0  1
C           0.90590         0.11216         0.05013
C           2.42251         0.10024         0.04424
C           2.93771        -1.24002        -0.46281
C           4.45622        -1.25748        -0.48039
C           4.95742        -2.59796        -1.00254
C           6.47447        -2.59573        -0.98669
C           7.03145        -3.94359        -1.43965
N           8.50209        -3.95313        -1.40466
C           9.00214        -3.70981        -0.04442
C           8.98583        -5.24289        -1.95667
C          10.51173        -5.26264        -2.01973
O          11.04567        -6.51873        -2.41962
C          12.48299        -6.50793        -2.36915
C          12.99646        -6.25715        -0.94274
O          12.94391        -7.77622        -2.84035
C          14.35492        -7.84375        -2.98060
H           0.53584         1.07579         0.41056
H           0.51541        -0.67439         0.70364
H           0.51378        -0.05344        -0.95802
H           2.79678         0.28742         1.05684
H           2.79435         0.90922        -0.59545
H           2.55800        -1.43010        -1.47253
H           2.57033        -2.04854         0.18137
H           4.84198        -1.08172         0.53060
H           4.83685        -0.44766        -1.11549
H           4.58778        -2.78136        -2.01496
H           4.58551        -3.40705        -0.36056
H           6.77816        -2.36630         0.03645
H           6.86134        -1.79597        -1.63166
H           6.69012        -4.12520        -2.46480
H           6.62451        -4.74840        -0.81332
H           8.69406        -2.73457         0.33974
H          10.09186        -3.63512        -0.00837
H           8.67534        -4.48615         0.65629
H           8.59650        -5.39715        -2.96910
H           8.62672        -6.08915        -1.35503
H          10.85782        -5.08846        -1.01135
H          10.87935        -4.46655        -2.67803
H          12.83824        -5.72863        -3.05450
H          12.61006        -7.02665        -0.26644
H          12.70097        -5.28312        -0.54491
H          14.08587        -6.26773        -0.88553
H          14.61158        -8.79869        -3.44461
H          14.84601        -7.81985        -2.00428
H          14.72494        -7.02885        -3.60935

