%chk=CCCCC1CCOCCdCC1qOrCC.chk
%NProcShared=20
# opt freq b3lyp/6-31g(2df,p)

Title Card Required 

0  1
C           0.91087        -0.03517         0.04619
C           2.42436        -0.03924         0.05587
C           2.93529        -1.07741         1.04318
C           4.45496        -1.07364         1.04869
C           5.02059        -2.14257         2.00487
C           6.09338        -1.46561         2.90261
C           7.34554        -1.06190         2.12596
O           8.15547        -2.16486         1.70282
C           8.45967        -3.15114         2.68263
C           7.39938        -4.21931         2.82619
C           6.19927        -4.33777         2.23666
C           5.53090        -3.40807         1.23715
O           6.42114        -3.05459         0.17939
C           4.39068        -4.13202         0.48576
C           4.89736        -5.33840        -0.30562
H           0.53893         0.71347        -0.65699
H           0.52177         0.19738         1.04245
H           0.52633        -1.01562        -0.25238
H           2.79821         0.95395         0.33140
H           2.80169        -0.26151        -0.94955
H           2.54811        -2.06530         0.77547
H           2.56632        -0.85219         2.05126
H           4.78089        -0.07017         1.34996
H           4.83166        -1.21588         0.02978
H           4.22494        -2.46561         2.69415
H           6.34598        -2.12280         3.74086
H           5.65680        -0.58235         3.38388
H           7.95810        -0.35411         2.68885
H           7.04989        -0.54123         1.20580
H           8.67350        -2.67582         3.64449
H           9.37249        -3.65234         2.34705
H           7.64175        -4.96574         3.58449
H           5.56105        -5.15376         2.58599
H           7.27657        -2.80197         0.57139
H           3.94817        -3.45288        -0.25381
H           3.59259        -4.43606         1.17234
H           5.66225        -5.03981        -1.03137
H           4.07808        -5.80111        -0.85986
H           5.33606        -6.09117         0.35449

