%chk=CCCCqOCrOCqCrC1CCCC1.chk
%NProcShared=20
# opt freq b3lyp/6-31g(2df,p)

Title Card Required 

0  1
C           0.79010         0.26761        -0.12463
C           2.30121         0.24232        -0.07903
C           2.98862         0.53686        -1.41436
C           4.52187         0.36976        -1.33827
O           4.81735        -1.01215        -1.13110
C           4.86723        -1.43964         0.21783
O           5.06522         0.78247        -2.60263
C           6.50023         0.83642        -2.68537
C           7.17627        -0.51617        -2.43891
C           6.89935         1.31317        -4.10032
C           6.19547         0.55283        -5.22760
C           6.38894         1.43316        -6.45098
C           6.49232         2.86182        -5.92274
C           6.53142         2.76540        -4.39802
H           0.40259        -0.03876         0.85396
H           0.42001        -0.44883        -0.86230
H           0.40741         1.26395        -0.35727
H           2.51655        -0.77787         0.22997
H           2.68260         0.90600         0.70033
H           2.73455         1.55246        -1.75107
H           2.60067        -0.14488        -2.17910
H           4.94477         1.01445        -0.56076
H           5.65601        -2.18964         0.31502
H           3.94437        -1.96766         0.46567
H           5.05115        -0.62495         0.92164
H           6.86717         1.56380        -1.95023
H           6.72443        -1.29854        -3.05832
H           7.08769        -0.82491        -1.39535
H           8.24930        -0.47391        -2.64644
H           7.98784         1.21337        -4.22532
H           5.12340         0.44356        -5.02934
H           6.61077        -0.44843        -5.37865
H           5.56200         1.31795        -7.15894
H           7.31179         1.15753        -6.97411
H           5.64007         3.46827        -6.24615
H           7.39876         3.33971        -6.31121
H           5.55073         3.02167        -3.98370
H           7.26282         3.46201        -3.97326

