%chk=CCCCCCCCCqCOrCCCCdO.chk
%NProcShared=20
# opt freq b3lyp/6-31g(2df,p)

Title Card Required 

0  1
C           1.02409        -0.06865        -0.02428
C           2.53877        -0.07184        -0.02932
C           3.06149        -0.82746        -1.24088
C           4.57883        -0.82931        -1.23597
C           5.10354        -1.58939        -2.43464
C           6.62346        -1.59501        -2.40103
C           7.12064        -2.33833        -3.61511
C           8.63586        -2.35079        -3.69907
C           9.13096        -3.09007        -4.95534
C           8.62509        -2.43967        -6.26257
O           7.22067        -2.50248        -6.44529
C          10.67100        -3.12043        -4.93200
C          11.24148        -3.88983        -6.12071
C          12.75822        -3.88918        -6.11413
C          13.27780        -4.62524        -7.31862
O          14.47978        -4.75839        -7.54651
H           0.65046         0.47420         0.84739
H           0.63633        -1.09170         0.01134
H           0.63633         0.41438        -0.92677
H           2.91082        -0.53954         0.88983
H           2.91123         0.95919        -0.04415
H           2.69340        -0.36143        -2.16346
H           2.69026        -1.85977        -1.22974
H           4.95261        -1.29518        -0.31668
H           4.95659         0.20015        -1.25934
H           4.74462        -1.12102        -3.36151
H           4.72400        -2.61909        -2.43196
H           6.99280        -2.06536        -1.48455
H           6.99766        -0.56409        -2.42749
H           6.69712        -1.80582        -4.46637
H           6.73517        -3.36529        -3.63007
H           9.03915        -2.83455        -2.79866
H           9.01558        -1.32129        -3.69705
H           8.75740        -4.12197        -4.90011
H           9.02634        -2.94617        -7.13777
H           8.93776        -1.39093        -6.30126
H           6.91980        -3.38860        -6.18416
H          11.01996        -3.58543        -3.99998
H          11.05971        -2.09367        -4.93333
H          10.92523        -3.43561        -7.06400
H          10.85214        -4.91546        -6.11677
H          13.13475        -4.37532        -5.21076
H          13.12612        -2.85860        -6.15937
H          12.52720        -5.04479        -8.00989

