%chk=CCCCqCCC1CC1rC1CC1C1CC1.chk
%NProcShared=20
# opt freq b3lyp/6-31g(2df,p)

Title Card Required 

0  1
C           0.68829         0.16901        -0.03127
C           2.19811         0.13095         0.02123
C           2.84975         0.73773        -1.21244
C           4.39407         0.67772        -1.28628
C           4.96983        -0.77132        -1.33018
C           4.60448        -1.71214        -0.17301
C           5.46101        -2.92765        -0.12472
C           4.93199        -4.29255         0.28245
C           5.21844        -3.99629        -1.16836
C           4.91185         1.43604        -2.52495
C           3.98940         2.18469        -3.46299
C           4.93634         2.95817        -2.57662
C           6.07681         3.79277        -3.16820
C           7.45722         3.24639        -3.44524
C           6.57781         3.65091        -4.58866
H           0.29444        -0.38493         0.82734
H           0.33514        -0.33731        -0.93690
H           0.30494         1.18863        -0.01199
H           2.38150        -0.92621         0.08294
H           2.59368         0.58501         0.93468
H           2.53783         1.78975        -1.23573
H           2.44140         0.26237        -2.11351
H           4.81165         1.17683        -0.40090
H           6.06486        -0.70004        -1.37790
H           4.66326        -1.24188        -2.27413
H           3.60136        -2.10068        -0.32149
H           4.66218        -1.17860         0.78482
H           6.45823        -2.70307         0.21563
H           3.89207        -4.43354         0.54720
H           5.61416        -4.94020         0.81672
H           4.34344        -3.94091        -1.80691
H           6.09907        -4.38236        -1.65478
H           5.77087         0.94385        -2.96953
H           2.93195         2.29748        -3.26248
H           4.18548         2.10732        -4.52526
H           4.47164         3.44810        -1.71822
H           6.06142         4.82534        -2.81004
H           7.64344         2.18872        -3.30596
H           8.30601         3.87402        -3.20202
H           6.17873         2.86433        -5.21713
H           6.81480         4.55978        -5.12982

