%chk=CCCqOrCCCC1CCCCOCC1.chk
%NProcShared=20
# opt freq b3lyp/6-31g(2df,p)

Title Card Required 

0  1
C           0.86585         0.00589         0.01271
C           2.38441        -0.00724         0.02906
C           2.92299        -0.60357         1.32670
O           2.45386        -1.94504         1.46984
C           4.45039        -0.58361         1.32059
C           5.00555        -1.14868         2.61524
C           6.53892        -1.14526         2.61250
C           7.02506        -1.75172         3.93563
C           8.21128        -2.70271         3.72497
C           8.44327        -3.68632         4.87688
C           7.15145        -4.25548         5.47628
C           6.73083        -3.55320         6.77598
O           6.30785        -2.19514         6.63952
C           7.34642        -1.23936         6.43066
C           7.30909        -0.68543         5.00243
H           0.50310         0.44357        -0.92100
H           0.47648         0.59752         0.84709
H           0.46148        -1.00808         0.09221
H           2.76096         1.01519        -0.09326
H           2.73877        -0.59496        -0.82631
H           2.54884        -0.03315         2.18385
H           2.79591        -2.46392         0.72857
H           4.81299         0.44172         1.18596
H           4.82736        -1.18605         0.48506
H           4.64826        -2.18049         2.74157
H           4.62569        -0.57570         3.47010
H           6.92366        -0.13007         2.47011
H           6.87642        -1.74569         1.75921
H           6.17250        -2.33108         4.28803
H           9.12962        -2.13103         3.54068
H           8.03910        -3.30229         2.82199
H           9.06074        -3.22573         5.65297
H           9.05523        -4.51264         4.49617
H           7.30826        -5.31765         5.69468
H           6.33409        -4.24041         4.74443
H           7.52393        -3.62386         7.52794
H           5.86770        -4.09642         7.17751
H           8.33123        -1.63365         6.69307
H           7.17150        -0.40883         7.12387
H           8.24658        -0.15868         4.78474
H           6.51569         0.07166         4.95875

