%chk=CCCqCrCCCqOrCqCrCC.chk
%NProcShared=20
# opt freq b3lyp/6-31g(2df,p)

Title Card Required 

0  1
C           0.85794         0.13178         0.06754
C           2.37577         0.07426         0.01026
C           2.89633        -1.29382        -0.45528
C           2.37820        -1.64053        -1.85975
C           4.43600        -1.28890        -0.39950
C           4.99829        -2.64526        -0.80146
C           6.52093        -2.68861        -0.83006
O           7.01716        -2.41412         0.48061
C           7.02510        -4.06710        -1.31861
C           6.48514        -4.40596        -2.71859
C           8.56412        -4.09788        -1.29814
C           9.12940        -5.45385        -1.68908
H           0.52872         1.10590         0.43698
H           0.46796        -0.64480         0.73293
H           0.41187        -0.00551        -0.92120
H           2.77227         0.29398         1.00962
H           2.74654         0.86146        -0.65749
H           2.53296        -2.06088         0.24199
H           2.73681        -0.91373        -2.59602
H           1.28706        -1.66388        -1.89659
H           2.69008        -2.63728        -2.18263
H           4.77074        -1.03580         0.61402
H           4.83223        -0.51610        -1.07031
H           4.63945        -2.87002        -1.80348
H           4.60994        -3.41354        -0.12145
H           6.89787        -1.90129        -1.49227
H           6.65035        -3.07498         1.08415
H           6.66731        -4.83166        -0.61531
H           6.80949        -3.65891        -3.45070
H           5.39364        -4.45827        -2.74356
H           6.81747        -5.38970        -3.05728
H           8.92764        -3.85527        -0.29239
H           8.95884        -3.32798        -1.97210
H           8.74737        -6.23567        -1.02514
H          10.21997        -5.44191        -1.62185
H           8.87263        -5.71806        -2.71825

