%chk=CCCqCOrCCqCrCCCCOC.chk
%NProcShared=20
# opt freq b3lyp/6-31g(2df,p)

Title Card Required 

0  1
C           1.01829         0.11335         0.24226
C           2.53025         0.08685         0.04574
C           2.96576        -0.58707        -1.28004
C           2.32206         0.13981        -2.47367
O           0.90346         0.09051        -2.50385
C           4.52325        -0.62901        -1.36091
C           5.13314        -1.37327        -2.58371
C           4.77249        -0.75217        -3.94030
C           6.67170        -1.41727        -2.47142
C           7.26970        -2.18098        -3.65091
C           8.77686        -2.17893        -3.66812
C           9.22806        -2.89087        -4.93322
O          10.64572        -2.89422        -4.96622
C          11.11241        -3.57087        -6.12271
H           0.75203         0.50247         1.22584
H           0.59694        -0.89112         0.12834
H           0.53017         0.78299        -0.46958
H           2.97688        -0.44414         0.89531
H           2.91186         1.11488         0.07836
H           2.60650        -1.62434        -1.25370
H           2.53775        -0.35374        -3.39576
H           2.67312         1.17176        -2.54516
H           0.65647        -0.84089        -2.49606
H           4.89405        -1.12756        -0.44995
H           4.92430         0.39221        -1.31435
H           4.76215        -2.40678        -2.55843
H           4.88147         0.33615        -3.91384
H           3.79434        -1.06831        -4.28041
H           5.34327        -1.11129        -4.78908
H           6.97487        -1.90069        -1.53459
H           7.06968        -0.39484        -2.44928
H           7.00221        -1.71853        -4.60068
H           6.86821        -3.20147        -3.67310
H           9.18055        -2.66290        -2.77532
H           9.15048        -1.14728        -3.67550
H           8.83998        -2.37411        -5.82226
H           8.84691        -3.91972        -4.94035
H          12.20318        -3.55717        -6.10621
H          10.76189        -3.06436        -7.02749
H          10.76775        -4.60948        -6.11639

