%chk=CCCqCrCCqCCrCqCrCCO.chk
%NProcShared=20
# opt freq b3lyp/6-31g(2df,p)

Title Card Required 

0  1
C           1.02772         0.16491         0.16939
C           2.55797         0.15794         0.13383
C           3.05132        -1.25153        -0.21206
C           2.55028        -1.49130        -1.65009
C           4.57062        -1.42579        -0.09513
C           5.10142        -2.90674        -0.09531
C           4.58918        -3.75838        -1.28439
C           3.15041        -4.26289        -1.12835
C           6.66724        -2.88491        -0.05793
C           7.17866        -2.18855         1.21473
C           7.25329        -4.30850        -0.13657
C           8.76963        -4.34087        -0.15647
O           9.19643        -5.69700        -0.25951
H           0.64688         1.17915         0.28150
H           0.66168        -0.46111         0.99001
H           0.58290        -0.22792        -0.75081
H           2.95640         0.51028         1.09022
H           2.91351         0.85094        -0.63820
H           2.60838        -1.93084         0.53345
H           2.67629        -0.61325        -2.28241
H           1.50234        -1.80799        -1.63432
H           3.07258        -2.24608        -2.21291
H           4.87235        -0.95654         0.84992
H           5.06006        -0.85531        -0.89346
H           4.75323        -3.39496         0.82497
H           5.14869        -4.67716        -1.44324
H           4.76869        -3.18792        -2.20712
H           3.07833        -5.11659        -0.45717
H           2.73770        -4.51164        -2.11231
H           2.47296        -3.55384        -0.67025
H           7.02620        -2.31659        -0.92745
H           6.83255        -2.72257         2.10613
H           6.85254        -1.14908         1.28456
H           8.26971        -2.14299         1.24433
H           6.95499        -4.81669        -1.05674
H           6.85728        -4.92056         0.68329
H           9.20417        -3.92979         0.75494
H           9.14425        -3.78457        -1.01780
H           8.84816        -6.16048         0.50378

