%chk=CCOCqdOrCdCCqCrCqdOrO.chk
%NProcShared=20
# opt freq b3lyp/6-31g(2df,p)

Title Card Required 

0  1
C           1.13158         0.00030        -0.02405
C           2.65327         0.02089        -0.00461
O           3.13723         1.00002         0.93979
C           4.49769         1.07069         1.00151
O           5.27314         0.38617         0.34755
C           4.92593         2.10208         1.98820
C           6.23656         2.33288         2.21663
C           6.82420         3.32181         3.22265
C           6.32481         3.00402         4.63150
C           8.37178         3.30590         3.19423
O           9.05046         2.58970         2.47102
O           8.96982         4.19212         4.02811
H           0.76128        -0.74047        -0.74254
H           0.72881         0.97912        -0.30252
H           0.72902        -0.24843         0.96286
H           3.01658         0.26868        -1.00901
H           3.01747        -0.97454         0.27622
H           4.14637         2.63835         2.51431
H           6.96236         1.74860         1.64515
H           6.51684         4.33378         2.92734
H           6.67267         2.01623         4.95430
H           5.23079         3.01182         4.68031
H           6.68337         3.73417         5.36383
H           8.39100         4.75843         4.56851

