%chk=CCOCCOCCCqCOOCOCrOC.chk
%NProcShared=20
# opt freq b3lyp/6-31g(2df,p)

Title Card Required 

0  1
C           0.98306         0.08666         0.02826
C           2.49580         0.06266        -0.00739
O           2.99401         0.81573         1.09461
C           4.42075         0.83170         1.08188
C           4.92318         1.65998         2.24629
O           6.35447         1.72558         2.20228
C           6.82085         2.39868         3.36619
C           8.34181         2.42301         3.44938
C           8.84344         3.21573         4.67973
C           8.30541         2.63363         5.99994
O           6.91187         2.89611         6.12514
O           6.46445         2.02104         7.19580
C           5.04310         2.02491         7.10882
O           4.50102         1.43440         8.28461
C           3.08532         1.46043         8.25428
O          10.28121         3.19832         4.65836
C          10.86763         4.01589         5.66837
H           0.57113        -0.48389        -0.80856
H           0.61188         1.11517        -0.02638
H           0.61156        -0.33903         0.96589
H           2.85260         0.50541        -0.94352
H           2.85517        -0.96949         0.06400
H           4.78709         1.25906         0.14233
H           4.80675        -0.19088         1.16614
H           4.58536         1.20479         3.18736
H           4.50373         2.67261         2.20380
H           6.41828         1.84534         4.21552
H           6.43000         3.42215         3.36666
H           8.75866         2.85541         2.52957
H           8.73131         1.39725         3.46878
H           8.50321         4.25146         4.56255
H           8.76815         3.10147         6.86886
H           8.51855         1.56088         6.04906
H           4.74120         1.44932         6.22726
H           4.69385         3.05738         7.01890
H           2.71805         1.01451         9.18354
H           2.71209         0.87461         7.41008
H           2.72128         2.48978         8.19166
H          11.94835         4.04292         5.51363
H          10.70220         3.59114         6.66212
H          10.47205         5.03512         5.62491

