%chk=CCOCCqOCCrCqCCrCCOC.chk
%NProcShared=20
# opt freq b3lyp/6-31g(2df,p)

Title Card Required 

0  1
C           0.91279         0.14130        -0.00002
C           2.41948         0.15631         0.02508
O           2.85305        -0.93358        -0.77990
C           4.26694        -0.91558        -0.92639
C           4.83064        -2.03587        -1.81634
O           4.41247        -1.82974        -3.19323
C           2.98816        -1.87213        -3.33515
C           2.54875        -1.67751        -4.76464
C           6.40022        -2.05627        -1.74893
C           6.98141        -2.27862        -0.31326
C           6.79227        -1.20033         0.74868
C           6.96653        -3.15030        -2.70959
C           8.49727        -3.16531        -2.76579
O           8.96689        -4.17951        -3.65224
C          10.39254        -4.22038        -3.63375
H           0.50520         0.92899         0.63565
H           0.54039        -0.83138         0.33738
H           0.55358         0.28055        -1.02539
H           2.79419         0.02094         1.04535
H           2.79957         1.10330        -0.37655
H           4.58371        -1.08086         0.08941
H           4.60692         0.05771        -1.28413
H           4.44803        -3.01100        -1.49559
H           2.53998        -1.01937        -2.83229
H           2.59389        -2.80753        -2.92216
H           2.91441        -0.71393        -5.13319
H           1.45333        -1.66407        -4.80267
H           2.92831        -2.46407        -5.41630
H           6.76733        -1.09252        -2.12905
H           8.06854        -2.35261        -0.38356
H           6.62711        -3.24072         0.07287
H           6.88027        -0.19673         0.32202
H           7.54407        -1.31052         1.53475
H           5.85407        -1.30202         1.29621
H           6.59095        -3.00108        -3.73002
H           6.60578        -4.14112        -2.40535
H           8.91821        -3.38834        -1.78327
H           8.86666        -2.19017        -3.10239
H          10.73154        -5.02502        -4.28957
H          10.76045        -4.41843        -2.62045
H          10.80015        -3.27081        -3.99463

