%chk=CCOCCOCOCCCNC1CqCCrC1CO.chk
%NProcShared=20
# opt freq b3lyp/6-31g(2df,p)

Title Card Required 

0  1
C           1.08345        -0.02286        -0.02944
C           2.59674        -0.00079        -0.00961
O           3.08075        -0.99850        -0.90375
C           4.50647        -1.01224        -0.91703
C           4.98497        -2.08350        -1.87781
O           6.40706        -2.09290        -1.88257
C           6.88607        -3.08186        -2.77458
O           8.30428        -3.07813        -2.76801
C           8.78845        -4.06136        -3.66766
C          10.30542        -4.04122        -3.66065
C          10.78926        -5.09964        -4.63242
N          12.24068        -5.18091        -4.65125
C          12.77912        -6.20181        -5.55880
C          12.87886        -7.64452        -5.11735
C          12.36838        -8.10314        -3.77557
C          13.51713        -8.43468        -2.83781
C          11.91966        -7.25699        -6.21875
C          12.18843        -7.65042        -7.63546
O          11.17111        -7.12638        -8.47785
H           0.67980         0.73346         0.64902
H           0.70727        -1.00627         0.27079
H           0.70731         0.16924        -1.03957
H           2.95935        -0.20964         1.00265
H           2.95942         0.98271        -0.32737
H           4.89210        -1.21834         0.08858
H           4.89152        -0.03476        -1.23126
H           4.60484        -1.87983        -2.88632
H           4.60252        -3.06357        -1.56765
H           6.52775        -2.86375        -3.78779
H           6.52610        -4.06676        -2.45359
H           8.41534        -3.85488        -4.67834
H           8.42479        -5.04928        -3.35655
H          10.67265        -4.23648        -2.64511
H          10.67400        -3.04821        -3.94194
H          10.41874        -4.87356        -5.63905
H          10.35012        -6.05530        -4.32459
H          12.61200        -5.28473        -3.70759
H          13.62373        -5.82625        -6.13673
H          13.75622        -8.20727        -5.42353
H          11.73275        -8.98529        -3.90675
H          11.74601        -7.35046        -3.28252
H          14.11268        -9.26176        -3.23634
H          13.13814        -8.72626        -1.85369
H          14.17884        -7.57134        -2.71039
H          10.86394        -7.33491        -5.99234
H          12.19475        -8.73945        -7.73838
H          13.14934        -7.26719        -7.99450
H          10.33033        -7.53122        -8.20260

