%chk=CCqCrOCqCrCC1CCCCqCqCrCrC1.chk
%NProcShared=20
# opt freq b3lyp/6-31g(2df,p)

Title Card Required 

0  1
C           0.92887         0.19995         0.03552
C           2.43205        -0.00873         0.11915
C           2.60433        -1.52576         0.32785
O           3.01428         0.55118        -1.08627
C           4.45706         0.53948        -1.13744
C           4.85967        -0.93178        -1.19934
C           4.99250         1.39724        -2.31460
C           6.54551         1.56002        -2.35656
C           7.07445         2.41724        -1.18915
C           8.60356         2.35550        -1.04309
C           9.13504         0.92026        -0.98389
C           8.71718         0.12432        -2.23492
C           9.31799         0.57169        -3.57038
C          10.83454         0.47292        -3.49944
C           8.78132        -0.26530        -4.74350
C           7.21585         0.19603        -2.25748
H           0.43583        -0.23303         0.91302
H           0.53318        -0.29594        -0.85970
H           0.66970         1.25775        -0.02657
H           2.83269         0.54013         0.98192
H           2.56955        -2.06333        -0.62650
H           1.84144        -1.95030         0.98269
H           3.52755        -1.77303         0.85441
H           4.80732         1.01689        -0.20521
H           4.16374        -1.47487        -1.86299
H           4.88856        -1.28030        -0.19078
H           5.80650        -1.32174        -1.51242
H           4.53346         2.39574        -2.30078
H           4.64893         0.95013        -3.26371
H           6.81341         2.04137        -3.30240
H           6.64409         2.06712        -0.24741
H           6.74978         3.45670        -1.31417
H           8.89129         2.87698        -0.12345
H           9.07311         2.88283        -1.87638
H           8.71510         0.42818        -0.09198
H          10.21583         0.89605        -0.83016
H           8.98969        -0.93016        -2.06361
H           9.04650         1.61480        -3.76621
H          11.14815        -0.55965        -3.30957
H          11.22986         1.09902        -2.69455
H          11.28709         0.81660        -4.43064
H           8.99603        -1.33121        -4.60636
H           9.22757         0.06099        -5.68649
H           7.69747        -0.15840        -4.86331
H           7.00989        -0.13775        -1.24454
H           6.79402        -0.50029        -2.99449

