%chk=CCqOrCdCqCCCqCrCOrCPqCrC.chk
%NProcShared=20
# opt freq b3lyp/6-31g(2df,p)

Title Card Required 

0  1
C           0.68600        -0.14368        -0.12873
C           2.18695        -0.23429        -0.01674
O           2.36850        -0.92846         1.21656
C           2.99019        -0.89537        -1.13668
C           4.33861        -0.92803        -1.31589
C           5.33263        -0.25649        -0.36585
C           4.81663         0.46833         0.84365
C           5.80400         1.05550         1.81812
C           6.65537         2.09853         1.11674
C           4.94202         1.64786         2.94615
O           5.75926         2.18502         3.96617
C           4.92395        -1.67976        -2.54213
P           6.76059        -1.55158        -2.61079
C           7.39176        -2.64162        -1.27755
C           7.24407        -2.53758        -4.06750
H           0.31790         0.39881         0.75655
H           0.23811        -1.13858        -0.08804
H           0.37345         0.39909        -1.01933
H           2.48407         0.81143         0.07294
H           2.65724        -1.83179         1.01522
H           2.35838        -1.36840        -1.89257
H           5.95865         0.42934        -0.94235
H           5.93448        -1.03951         0.07406
H           4.29991        -0.27002         1.44385
H           4.18798         1.29317         0.51367
H           6.44882         0.26513         2.22221
H           6.02045         2.87052         0.66766
H           7.24114         1.64156         0.31263
H           7.35145         2.56860         1.81095
H           4.29325         0.88039         3.39155
H           4.28039         2.43600         2.56514
H           6.34347         1.46431         4.25445
H           4.53100        -1.20588        -3.45244
H           4.59611        -2.72472        -2.54265
H           7.23571        -2.26513        -0.26744
H           8.48013        -2.71512        -1.36035
H           6.96360        -3.64506        -1.31072
H           6.89654        -2.07127        -4.99286
H           6.87281        -3.56526        -4.03222
H           8.33875        -2.58362        -4.12008

