%chk=CdC1CCCCCCqCrCCqCrC1.chk
%NProcShared=20
# opt freq b3lyp/6-31g(2df,p)

Title Card Required 

0  1
C           1.03694         0.03567         0.00807
C           2.38954         0.05569         0.00011
C           3.15293         1.33328        -0.29988
C           2.75421         2.52876         0.58738
C           3.71672         2.82048         1.74655
C           3.70238         1.73242         2.82415
C           4.75136         0.67678         2.50338
C           4.67571        -0.57749         3.37085
C           6.03770        -0.74660         4.04072
C           4.32758        -1.83551         2.53263
C           2.99061        -1.70856         1.75551
C           2.26882        -3.05772         1.72565
C           3.18163        -1.20444         0.29424
H           0.45752         0.92892        -0.19089
H           0.48399        -0.86590         0.23814
H           2.98934         1.58624        -1.35461
H           4.23641         1.17737        -0.24795
H           1.74909         2.40491         1.00666
H           2.70852         3.42166        -0.04620
H           3.42026         3.77065         2.20611
H           4.73273         2.96963         1.35892
H           2.70002         1.29711         2.91190
H           3.94043         2.17487         3.79898
H           5.74332         1.14066         2.53289
H           4.66016         0.37141         1.47689
H           3.91426        -0.46352         4.15385
H           6.82474        -0.85623         3.28527
H           6.06029        -1.62039         4.69475
H           6.27302         0.14091         4.63980
H           4.28118        -2.69053         3.21975
H           5.14628        -2.05709         1.83563
H           2.33977        -1.02359         2.31427
H           2.86572        -3.81094         1.20220
H           1.30433        -2.96739         1.21492
H           2.07192        -3.41493         2.74135
H           2.89023        -1.97732        -0.42992
H           4.24210        -1.03800         0.06916

