%chk=CdCqCqCrCrCqCrCCqCCrCC.chk
%NProcShared=20
# opt freq b3lyp/6-31g(2df,p)

Title Card Required 

0  1
C           0.97674         0.09337        -0.06939
C           2.31214        -0.00437        -0.04681
C           3.10368        -1.24652        -0.44545
C           3.94491        -1.86741         0.68434
C           2.15398        -2.34342        -0.91179
C           3.07756         1.13466         0.60252
C           2.61442         0.97188         2.07421
C           4.61383         1.16763         0.46061
C           5.37798         2.43219         0.89813
C           5.03007         2.86523         2.33462
C           3.68165         3.57892         2.43661
C           6.88966         2.09596         0.79665
C           7.74354         3.27079         1.23152
H           0.31295        -0.72208        -0.35406
H           0.45052         0.97821         0.30212
H           3.75889        -0.97219        -1.28222
H           3.33168        -2.07867         1.56491
H           4.78121        -1.27750         1.03477
H           4.43019        -2.78264         0.34132
H           1.50695        -2.64796        -0.07862
H           2.70896        -3.22062        -1.24571
H           1.52703        -1.99615        -1.73821
H           2.72397         2.05817         0.11267
H           2.62842        -0.05566         2.43513
H           1.61600         1.41003         2.20589
H           3.24622         1.43180         2.81203
H           4.91260         0.90404        -0.56517
H           5.02571         0.42560         1.13034
H           5.14568         3.24772         0.20631
H           5.74036         3.57116         2.75716
H           5.12433         1.97884         2.98563
H           3.69925         4.58657         2.03469
H           3.32221         3.54650         3.47101
H           2.90360         3.14804         1.82292
H           7.14357         1.82558        -0.23724
H           7.13924         1.21796         1.41100
H           7.47298         4.15523         0.64856
H           8.80472         3.05589         1.10666
H           7.60489         3.49820         2.29083

