%chk=CdCqOrCCSC1[SH]dCCCqCCrdCC1SC.chk
%NProcShared=20
# opt freq b3lyp/6-31g(2df,p)

Title Card Required 

0  1
C           0.97208        -0.07282         0.04823
C           2.31323        -0.08488         0.13422
O           3.07051         0.76403        -0.63340
C           3.03516        -1.01145         1.09299
C           4.55077        -0.90104         1.02612
S           5.45638        -1.91198         2.24388
C           7.23854        -1.73744         1.75047
S           8.03495        -0.12141         2.00010
C           7.13912         0.84545         0.84217
C           6.78622         0.47130        -0.56107
C           6.72629        -0.87653        -1.23819
C           5.93703        -0.87656        -2.55639
C           5.37571         0.47847        -2.97929
C           7.14272        -2.08540        -0.80515
C           7.77778        -2.47522         0.50399
S           7.60687        -4.33446         0.66120
C           8.54534        -4.65964         2.18127
H           0.44099         0.58811        -0.62153
H           0.39351        -0.73210         0.68176
H           2.49609         1.24032        -1.25992
H           2.75326        -2.04375         0.85290
H           2.71016        -0.77922         2.11027
H           4.80947         0.13969         1.21321
H           4.80146        -1.22232         0.02317
H           7.71371        -2.23133         2.59900
H           9.13667        -0.30114         1.30560
H           6.84370         1.86139         1.15780
H           7.35000         1.15848        -1.19523
H           5.75520         0.84397        -0.56795
H           5.09286        -1.57730        -2.46584
H           6.58683        -1.24599        -3.35617
H           4.64815         0.84789        -2.25905
H           4.85716         0.42054        -3.93573
H           6.16840         1.22784        -3.05428
H           6.94355        -2.92752        -1.47537
H           8.85657        -2.30615         0.38257
H           8.48079        -5.72900         2.39977
H           8.13243        -4.14125         3.04888
H           9.59776        -4.39426         2.05382

