%chk=CdCqCrCdCdC1CNqCCSCrC1C.chk
%NProcShared=20
# opt freq b3lyp/6-31g(2df,p)

Title Card Required 

0  1
C           1.08745         0.11112        -0.00831
C           2.43255         0.09855        -0.03582
C           3.15462        -0.58720        -1.16332
C           3.21969         0.74120         1.00870
C           4.52845         0.76637         1.03717
C           5.81676         0.76791         1.08165
C           6.94265         1.50718         0.37363
N           7.81364         0.32222         0.66902
C           7.83118        -0.62319        -0.47608
C           8.80449        -1.81620        -0.25751
S           8.70322        -2.98371        -1.66998
C           9.81233        -4.31136        -1.10944
C           6.88541        -0.06426         1.77695
C           6.60484        -1.53753         1.99568
H           0.50758        -0.36769        -0.79461
H           0.51480         0.58955         0.77957
H           2.45762        -1.02595        -1.88674
H           3.78096        -1.40005        -0.78182
H           3.78134         0.12593        -1.70822
H           2.67763         1.22039         1.81927
H           7.28052         2.41910         0.88948
H           6.80360         1.77112        -0.68005
H           8.18264        -0.07991        -1.36474
H           6.82466        -0.98368        -0.72611
H           8.55917        -2.38571         0.63800
H           9.83124        -1.45313        -0.14319
H           9.83388        -5.08219        -1.88767
H           9.45891        -4.78291        -0.18747
H          10.83343        -3.94563        -0.97395
H           7.22688         0.36158         2.73274
H           6.26357        -2.05239         1.09236
H           5.82510        -1.66965         2.74992
H           7.49800        -2.04086         2.37957

