%chk=COC1CCCdCCqCdCqNOrCqCrNrdCCC1.chk
%NProcShared=20
# opt freq b3lyp/6-31g(2df,p)

Title Card Required 

0  1
C           1.23474        -0.23774        -0.13884
O           2.81536        -0.51351        -0.46460
C           3.67278        -2.04150        -0.29412
C           4.70487        -1.35243         0.35754
C           4.65472        -3.00308         1.06331
C           5.96479        -3.15449         1.49963
C           6.80458        -4.17990         1.53094
C           8.46063        -3.87899         1.43925
C           9.41659        -2.51892         0.74605
C           8.95675        -1.25425         0.36125
N           7.63541        -1.08458         0.25099
O           7.36766        -2.13670        -0.46372
C           9.63601        -0.02915        -0.07395
C          10.40908        -0.25744        -1.33730
N           8.61929         1.04151        -0.25117
C           8.36038        -4.90112         0.57064
C           7.16974        -4.22568        -0.80180
C           5.40661        -3.12355        -1.03720
H           0.87356         0.85160        -0.26283
H           0.80396        -0.48693         0.86405
H           0.67277        -0.75592        -0.91445
H           2.97051        -2.21249         0.64646
H           4.69161        -0.55370         1.09695
H           4.99644        -0.90849        -0.66577
H           4.37855        -3.94935         0.48676
H           4.08844        -3.12309         1.93915
H           6.16984        -2.23983         1.00270
H           6.40369        -5.15187         0.93882
H          10.47549        -2.73575         0.44071
H           6.99133        -0.33176        -0.01024
H           7.40839        -2.74329         0.30738
H          10.22174         0.14233         0.82048
H           9.75495        -0.48509        -2.19142
H          11.09978        -1.09644        -1.21331
H          10.96421         0.65667        -1.52050
H           8.01937         0.78425        -1.04111
H           9.07899         1.91412        -0.43712
H           8.61973        -5.97153         0.82431
H           8.38218        -4.67285        -1.34105
H           8.50558        -3.78572        -0.66333
H           4.45394        -3.78018        -1.10280
H           4.88300        -2.81564        -2.00121

