%chk=COCCCCdNNC1CqCrCCCCC1N.chk
%NProcShared=20
# opt freq b3lyp/6-31g(2df,p)

Title Card Required 

0  1
C           1.05280         0.01651         0.08080
O           2.47522         0.03489         0.06312
C           2.95571         1.05345        -0.81018
C           4.47568         1.03651        -0.79098
C           5.03931         2.10744        -1.70460
C           6.54364         2.10771        -1.66691
N           7.15800         3.04361        -2.31407
N           8.49754         3.03547        -2.30043
C           9.19997         3.94986        -3.22895
C           9.12727         3.49809        -4.71598
C           7.68054         3.27973        -5.19345
C           9.87608         4.46349        -5.67062
C           9.11952         5.76073        -5.96372
C           9.39416         6.88092        -4.96828
C           9.63769         6.46985        -3.51531
C           8.66792         5.40814        -2.99762
N           8.41556         5.63339        -1.55361
H           0.72136        -0.77245         0.76021
H           0.66446        -0.19452        -0.92038
H           0.66548         0.97546         0.43885
H           2.58519         2.02783        -0.47153
H           2.58858         0.86411        -1.82554
H           4.84105         0.04781        -1.09563
H           4.83811         1.18267         0.23395
H           4.68306         3.10146        -1.40697
H           4.71722         1.94050        -2.73982
H           7.06330         1.31284        -1.11176
H           9.01394         2.20793        -2.00831
H          10.25809         3.92172        -2.92753
H           9.64209         2.52888        -4.79214
H           7.05110         4.15608        -5.01017
H           7.20562         2.44618        -4.67407
H           7.64313         3.05475        -6.26227
H          10.03871         3.94249        -6.62361
H          10.88176         4.68611        -5.28943
H           8.03974         5.59890        -6.01066
H           9.37182         6.11219        -6.97169
H           8.54549         7.57660        -5.00156
H          10.26603         7.44841        -5.31264
H           9.56184         7.37893        -2.90623
H          10.67231         6.12356        -3.40010
H           7.69420         5.53153        -3.48302
H           9.26698         5.41449        -1.04131
H           7.79699         4.83903        -1.31472

