%chk=COCCqCrOCCCOCNqCrCCCO.chk
%NProcShared=20
# opt freq b3lyp/6-31g(2df,p)

Title Card Required 

0  1
C           0.87993        -0.04878         0.02988
O           2.29817        -0.04913        -0.00436
C           2.81434        -1.30293        -0.45397
C           4.34601        -1.27742        -0.39079
C           4.80599        -1.00490         1.04507
O           4.83804        -2.53917        -0.87047
C           6.25718        -2.56320        -0.95119
C           6.74426        -3.89766        -1.47370
C           8.26242        -3.88759        -1.44715
O           8.74104        -5.14005        -1.90045
C          10.16244        -5.16006        -1.93611
N          10.63859        -6.43184        -2.47586
C          10.09335        -6.62232        -3.82338
C          12.10843        -6.44788        -2.46558
C          12.68074        -7.78476        -2.93679
C          14.19923        -7.77605        -2.91296
O          14.68897        -9.01952        -3.40118
H           0.54768         0.92061         0.41037
H           0.51161        -0.83180         0.69951
H           0.47867        -0.18935        -0.97740
H           2.48331        -1.49185        -1.48228
H           2.42962        -2.11809         0.17216
H           4.70986        -0.47507        -1.04599
H           4.51488        -1.83255         1.70067
H           4.38975        -0.07289         1.43485
H           5.89346        -0.91083         1.11318
H           6.68485        -2.43468         0.04621
H           6.60560        -1.74916        -1.59743
H           6.36761        -4.08890        -2.48550
H           6.35470        -4.71905        -0.85936
H           8.62289        -3.71183        -0.42618
H           8.64082        -3.08736        -2.09495
H          10.53079        -5.02501        -0.91128
H          10.52409        -4.31953        -2.54468
H           8.99831        -6.60125        -3.81958
H          10.35013        -7.60693        -4.22303
H          10.45263        -5.85624        -4.51962
H          12.45834        -6.27547        -1.43813
H          12.50972        -5.63058        -3.07902
H          12.37104        -8.01260        -3.96197
H          12.29847        -8.60259        -2.31318
H          14.58534        -7.62129        -1.90149
H          14.58802        -6.98386        -3.55947
H          14.29428        -9.72118        -2.86193

