%chk=COCCqCrNCCCqCrCOO.chk
%NProcShared=20
# opt freq b3lyp/6-31g(2df,p)

Title Card Required 

0  1
C           0.93139        -0.10708         0.04094
O           2.34956        -0.12102         0.08060
C           2.84694         0.80840         1.04464
C           4.38492         0.81807         1.00773
C           4.86310         1.22050        -0.39829
N           4.88365         1.72354         2.06405
C           6.33988         1.73319         2.10082
C           6.87277         2.70657         3.14447
C           8.41223         2.74241         3.11984
C           8.96643         3.16838         1.75049
C           8.92443         3.68293         4.21282
O          10.35074         3.63060         4.23331
O          10.76014         4.60682         5.22679
H           0.60283        -0.80453        -0.73308
H           0.56468         0.89333        -0.20848
H           0.52687        -0.42958         1.00437
H           2.49686         0.50581         2.03902
H           2.45980         1.81180         0.82590
H           4.73885        -0.20249         1.20616
H           4.55775         2.24484        -0.63834
H           4.45263         0.55338        -1.16210
H           5.95041         1.15511        -0.50388
H           4.52615         1.41825         2.96976
H           6.70492         2.06764         1.13225
H           6.72803         0.72641         2.29448
H           6.52210         2.40986         4.14146
H           6.47541         3.71197         2.95213
H           8.79360         1.73302         3.32504
H           8.58989         4.15725         1.46822
H           8.69534         2.46284         0.95958
H          10.05956         3.20482         1.75583
H           8.54959         3.36975         5.19326
H           8.59677         4.71099         4.01917
H          11.72080         4.50032         5.07909

