%chk=COCqCOrCCCCCqOrCCqCrC.chk
%NProcShared=20
# opt freq b3lyp/6-31g(2df,p)

Title Card Required 

0  1
C           0.89969         0.18518         0.14955
O           2.30782         0.07748        -0.00829
C           2.72965        -1.14729        -0.62803
C           2.23378        -1.27751        -2.08785
O           0.82306        -1.46218        -2.18903
C           4.26430        -1.14755        -0.57821
C           4.84072        -2.42266        -1.17712
C           6.35000        -2.40948        -1.17687
C           6.86123        -3.69129        -1.83372
C           8.37921        -3.70790        -1.79239
O           8.75099        -3.58956        -0.42177
C           8.94163        -4.98993        -2.40703
C          10.48154        -5.02926        -2.42802
C          11.10753        -4.95988        -1.03361
C          10.95045        -6.31019        -3.11661
H           0.68195         1.06437         0.75936
H           0.49502        -0.70103         0.64875
H           0.41391         0.34172        -0.81519
H           2.35574        -1.98208        -0.02129
H           2.65940        -2.15051        -2.58278
H           2.50826        -0.38688        -2.66066
H           0.56669        -2.12385        -1.52991
H           4.60238        -1.03697         0.46183
H           4.65629        -0.26712        -1.10480
H           4.53485        -2.54230        -2.21845
H           4.46959        -3.29209        -0.62148
H           6.70990        -2.31980        -0.14594
H           6.72331        -1.53988        -1.73165
H           6.50101        -3.76662        -2.86736
H           6.46287        -4.55478        -1.28443
H           8.77269        -2.83756        -2.32927
H           8.48460        -4.40323         0.03169
H           8.56790        -5.08171        -3.43670
H           8.56456        -5.86051        -1.85493
H          10.84191        -4.17288        -3.01211
H          10.68956        -5.73278        -0.37906
H          10.95266        -3.98524        -0.56467
H          12.19122        -5.09335        -1.08032
H          10.60146        -7.19625        -2.57500
H          12.04383        -6.34587        -3.15665
H          10.57341        -6.36635        -4.14250

