%chk=CtCC1dCCqCCCCCCCrC1CCC.chk
%NProcShared=20
# opt freq b3lyp/6-31g(2df,p)

Title Card Required 

0  1
C           1.15248         0.09145        -0.01382
C           2.35470         0.10957        -0.01256
C           3.85307         0.10445        -0.00553
C           4.78454         1.07350        -0.01101
C           5.94383         0.10059        -0.02089
C           6.80940         0.12626        -1.26973
C           7.86925        -0.95830        -1.15500
C           8.76301        -0.94916        -2.37508
C           9.81854        -2.03378        -2.25105
C          10.70819        -2.02108        -3.48078
C          11.77433        -3.09949        -3.37552
C          12.65898        -3.08082        -4.60534
C           4.86617        -1.02240         0.01081
C           4.87568        -1.88803         1.26360
C           5.96807        -2.94589         1.14483
C           5.97870        -3.83708         2.36617
H           0.08977         0.07350        -0.01127
H           4.75619         2.15794        -0.01330
H           6.57374         0.15006         0.87905
H           7.29432         1.10410        -1.36735
H           6.20718        -0.03388        -2.17328
H           7.39713        -1.94259        -1.06740
H           8.46709        -0.80644        -0.24689
H           9.24062         0.03214        -2.47657
H           8.15759        -1.11721        -3.27392
H           9.33804        -3.01450        -2.14506
H          10.42061        -1.86818        -1.34907
H          11.17996        -1.03594        -3.58337
H          10.09825        -2.18305        -4.37826
H          11.30134        -4.08327        -3.27480
H          12.38348        -2.93556        -2.47901
H          12.06746        -3.26263        -5.50837
H          13.42608        -3.85536        -4.53122
H          13.15407        -2.10999        -4.70921
H           4.84260        -1.65528        -0.88862
H           3.90327        -2.38019         1.37845
H           5.04148        -1.27769         2.16071
H           6.94960        -2.47160         1.04605
H           5.81000        -3.55098         0.24334
H           6.17308        -3.24448         3.26530
H           6.76036        -4.59560         2.27412
H           5.01417        -4.33971         2.48097

