%chk=OCCCCCC1C2COCC1qOOrC2.chk
%NProcShared=20
# opt freq b3lyp/6-31g(2df,p)

Title Card Required 

0  1
O           0.94058        -0.07352        -0.04859
C           2.34945        -0.08798         0.06654
C           2.96892         0.01609        -1.30470
C           4.50097         0.00657        -1.18061
C           5.04771         0.32860        -2.54433
C           6.52406         0.13905        -2.82153
C           6.85961         0.21312        -4.32651
C           6.05872         1.09104        -5.36545
C           4.53782         0.96164        -5.39060
O           4.10485        -0.40666        -5.54741
C           5.06335        -1.44656        -5.23184
C           6.50610        -0.95603        -5.32079
O           7.46091        -2.03870        -5.40894
O           7.32991        -2.80481        -4.17732
C           6.60679         0.12213        -6.44828
H           0.59282        -0.14231         0.86246
H           2.66145        -1.01962         0.54594
H           2.66445         0.76303         0.67673
H           2.61703         0.92820        -1.80864
H           2.61953        -0.81005        -1.94248
H           4.84121        -0.97429        -0.83357
H           4.83500         0.76901        -0.47173
H           4.80976         1.37860        -2.73199
H           4.45669        -0.28480        -3.20905
H           6.88864        -0.80788        -2.40910
H           7.06301         0.93752        -2.29778
H           7.94263         0.43221        -4.36775
H           6.40845         2.12619        -5.43685
H           4.11959         1.53634        -6.22155
H           4.05556         1.39980        -4.51621
H           4.88142        -2.26497        -5.93310
H           4.85338        -1.86901        -4.24269
H           7.69835        -3.62917        -4.52078
H           5.95373        -0.02680        -7.31762
H           7.61263         0.34072        -6.81885

