%chk=OCCOCCCCCCC1CCC1.chk
%NProcShared=20
# opt freq b3lyp/6-31g(2df,p)

Title Card Required 

0  1
O           1.03700        -0.02656        -0.09543
C           2.45981        -0.01829        -0.08455
C           2.95486         0.85275         1.05524
O           4.37833         0.85929         1.06391
C           4.85743         1.67309         2.12724
C           6.37094         1.65292         2.09646
C           6.92042         2.51407         3.21441
C           8.44143         2.50425         3.18549
C           8.94230         3.35830         4.32654
C          10.45915         3.40494         4.41241
C          10.90673         4.30911         5.55741
C          10.85408         5.83404         5.28934
C          10.42656         6.02374         6.75850
C           9.93874         4.57010         6.75382
H           0.76624        -0.59040        -0.83320
H           2.82609         0.36196        -1.04408
H           2.82607        -1.04400         0.03038
H           2.57775         0.46770         2.01038
H           2.57777         1.87548         0.93433
H           4.49474         1.28113         3.08496
H           4.49228         2.69923         2.00075
H           6.73120         2.01358         1.12558
H           6.73370         0.62260         2.19537
H           6.56031         2.14271         4.18344
H           6.55061         3.54314         3.11444
H           8.80821         2.89362         2.22986
H           8.81248         1.47912         3.29789
H           8.54168         2.93244         5.25472
H           8.53714         4.37318         4.22853
H          10.88573         3.75783         3.46507
H          10.84008         2.38895         4.57047
H          11.90810         4.00422         5.89711
H          10.09480         6.14107         4.56116
H          11.80644         6.29606         5.01502
H           9.64200         6.76860         6.91697
H          11.25002         6.20276         7.45489
H           8.86384         4.53218         6.54640
H          10.12748         3.97361         7.64888

