%chk=[C]1[CH]CdC2CdCCdCdC3[C]dCCdCCdCC2dC13.chk
%NProcShared=20
# opt freq b3lyp/6-31g(2df,p)

Title Card Required 

0  1
C          -0.08655        -1.45268        -0.16008
C          -1.38255        -1.12882         0.05090
C          -1.28451         0.27060        -0.31824
C           0.17188         0.89466        -0.93272
C           0.09191         2.65592        -0.92238
C          -1.25326         2.79129        -0.52549
C          -1.10180         3.40065         0.72653
C          -0.16263         2.00350         1.11872
C           0.98173         0.65674         1.09080
C           1.85197        -1.09369         0.99310
C           2.95531        -2.24767         0.62093
C           3.69106        -3.88466         0.19098
C           5.33057        -4.00247         0.01285
C           4.64081        -2.31854        -0.60297
C           3.70829        -0.97012        -0.76231
C           1.94904         0.24521        -0.72945
C           1.09061        -0.59525        -0.16832
H          -1.64432        -1.41431         1.04353
H          -2.34537         0.69652        -0.04108
H           0.54803         3.66997        -0.14575
H          -2.41908         2.48520        -0.25544
H          -1.25956         4.80198         0.15982
H           4.26256        -1.52383         0.76253
H           3.49557        -5.03054         0.02201
H           6.65996        -3.89907         0.04834
H           5.16088        -3.91605        -0.36647
H           3.72442         0.27302        -0.01770

