%chk=[C][C]1CdCNdC1CCCCdS.chk
%NProcShared=20
# opt freq b3lyp/6-31g(2df,p)

Title Card Required 

0  1
C           0.77816         0.10453         0.47798
C           2.20314         0.10073         0.00056
C           2.83774         1.22353        -0.62080
C           3.66549         0.70509        -1.55184
N           3.73096        -0.67658        -1.56535
C           2.87386        -1.05689        -0.64238
C           2.61730        -2.47216        -0.21172
C           3.28534        -3.48403        -1.13314
C           2.99236        -4.91474        -0.69667
C           3.65522        -5.89160        -1.63797
S           3.51180        -7.54378        -1.41378
H           2.63869         2.25538        -0.41547
H           4.24126         1.28527        -2.25861
H           1.53644        -2.64566        -0.18716
H           2.99764        -2.58757         0.81090
H           4.37065        -3.31893        -1.14817
H           2.93594        -3.33200        -2.16231
H           1.91054        -5.09372        -0.69653
H           3.36708        -5.08333         0.32010
H           4.23475        -5.46746        -2.47574

