%chk=[N]dCCd[SH]c1ncccn1.chk
%NProcShared=20
# opt freq b3lyp/6-31g(2df,p)

Title Card Required 

0  2
N           1.04909        -0.02123        -0.01146
C           2.30183        -0.04090         0.00648
C           3.07128         1.07853        -0.59467
S           4.86419         1.05587        -0.49821
C           5.17814         2.51716        -1.43177
N           4.67862         3.64960        -0.92380
C           5.04748         4.76982        -1.57289
C           5.88331         4.77769        -2.66792
C           6.34080         3.54303        -3.07770
N           6.00985         2.38269        -2.47241
H           2.85772        -0.86768         0.46710
H           2.48764         1.88986        -1.05803
H           5.15231         0.12534        -1.37964
H           4.64318         5.69437        -1.17081
H           6.16305         5.69483        -3.16954
H           7.01130         3.45676        -3.92929

