%chk=[NH][C]1Cdc2ccnccccqdNrcqcc2rdCN1.chk
%NProcShared=20
# opt freq b3lyp/6-31g(2df,p)

Title Card Required 

0  1
N           3.32014        -0.77172        -1.20197
C           4.63155        -1.11600        -2.22910
C           4.56811         0.34848        -1.96547
C           6.07241         0.44665        -2.12035
C           5.05876         0.81145        -3.46825
C           6.11388         1.11105        -4.07748
N           6.45065         0.75919        -5.27130
C           7.66451         1.14919        -5.25322
C           8.42231         1.28640        -6.44174
C           9.78689         1.31318        -6.42110
C           9.81443         0.01712        -7.04477
N           9.66830         0.37211        -8.44597
C           9.11915        -0.72769        -5.26432
C           9.38286        -0.07012        -3.63593
C           7.99406        -0.01199        -2.54193
C           7.60183        -1.33271        -4.60422
N           6.18304        -1.39258        -3.48269
H           2.27196         0.06918        -0.93566
H           3.18074         0.40842        -2.51428
H           4.19441         0.21189        -3.97578
H           6.90997         1.14452        -3.40565
H           8.19107         0.94295        -4.36146
H           7.85220         0.53789        -7.08458
H          10.48986         1.08473        -5.63033
H           8.66217         0.46143        -8.74639
H          10.72232        -0.05982        -4.17579
H           7.62720         0.04775        -1.47756
H           8.26865        -1.09865        -5.88117
H           6.29158        -1.63438        -2.37864

