%chk=[S]NCC1SC2dCC2dCCdCC1dS.chk
%NProcShared=20
# opt freq b3lyp/6-31g(2df,p)

Title Card Required 

0  2
S           0.98695         0.05563         0.10004
N           2.65461        -0.12887        -0.08805
C           3.18229        -0.87325        -1.25412
C           4.72410        -0.93338        -1.25644
S           5.51197        -0.76895        -2.97813
C           6.46424        -2.13255        -3.09946
C           7.58587        -2.60868        -3.67666
C           7.52967        -2.48001        -2.29435
C           8.14568        -2.52939        -1.14196
C           7.68195        -1.85703         0.04931
C           6.41716        -1.72579         0.47168
C           5.27954        -2.10640        -0.41950
S           4.71226        -3.70503        -0.48261
H           3.03762        -0.50320         0.77947
H           2.83022        -0.38757        -2.16930
H           2.75360        -1.87977        -1.23653
H           5.08439        -0.01416        -0.76995
H           8.35636        -2.17298        -4.28659
H           9.10445        -3.02844        -1.09206
H           8.47037        -1.37528         0.62338
H           6.15999        -1.18904         1.37885

