%chk=[SH]tCC1dCCdCCdC2CdCCdC1S2.chk
%NProcShared=20
# opt freq b3lyp/6-31g(2df,p)

Title Card Required 

0  1
S           0.95563        -0.01975         0.08741
C           2.50825        -0.01975         0.08741
C           4.02825        -0.01975         0.08741
C           4.51355         1.00632        -0.62801
C           5.66996         0.35991         0.01571
C           6.77478         1.53160         0.12316
C           8.06968         1.64291        -0.51511
C           7.80237         3.16398        -1.00355
C           9.54121         2.82538        -1.38642
C           9.96173         3.38010        -2.52884
C           8.16674         2.01269        -2.23508
C           6.07387         1.06627        -1.36670
S           7.16823         3.16116        -2.51054
H           0.51681         1.04530         0.79501
H           4.18523         1.78832        -1.18226
H           6.69120         0.08749        -0.05922
H           6.14733         2.53814        -1.06472
H           8.99475         1.14014        -0.76273
H          10.94964         2.25513        -1.47808
H          10.62307         4.72015        -3.29114
H           9.94877         2.77812        -2.63067

