%chk=C1dc2ccc3cccc-3nncsc2dC1.chk
%NProcShared=20
# opt freq b3lyp/6-31g(2df,p)

Title Card Required 

0  1
C           1.58149        -0.39761        -0.38959
C           2.82415        -0.18205         0.11071
C           3.36686         0.76808         1.13747
C           4.69752         0.86407         1.18102
C           5.34767         2.05695         1.60345
C           5.05289         2.73862         2.70582
C           6.05189         3.72367         2.93828
C           6.97348         3.75129         1.96376
C           6.54844         2.72872         0.97957
N           7.03345         2.49121        -0.21037
N           6.05474         1.71780        -0.78788
C           5.99862         1.25406        -1.99096
S           4.36386         0.48102        -2.44104
C           3.03301         0.49689        -1.17469
C           1.72422         0.94133        -1.06598
H           0.69189        -1.00784        -0.22356
H           2.72261         1.56341         1.50974
H           5.28391         0.13496         0.62185
H           4.23272         2.46473         3.34760
H           6.03980         4.29946         3.84825
H           7.83651         4.38159         1.87230
H           6.85169         1.36345        -2.69946
H           1.00959         1.45751        -0.37690

