%chk=C1dCCdc2cccccq[nH]cc2rdNCdC1.chk
%NProcShared=20
# opt freq b3lyp/6-31g(2df,p)

Title Card Required 

0  1
C           2.72514        -0.45123         0.85946
C           3.80295         0.05989         0.04532
C           3.70008        -0.70496         1.26361
C           5.49477        -0.38345         0.75149
C           5.79118        -1.53714         2.58914
C           7.22749        -0.82480         1.45449
C           6.08030        -1.96816         3.27569
C           8.24706        -1.87535         3.12785
C           8.22838        -2.58776         4.26261
N           8.51431        -3.16285         5.17864
C           7.07682        -2.42816         4.00840
C           6.03202        -1.28239         2.18337
N           9.04372        -2.09658         3.48024
C           7.18050        -1.52009         2.56198
C           4.78376        -1.07844         1.85850
H           0.88626        -0.41321         0.79889
H           3.00179         0.54565        -0.72841
H           2.68310        -1.19593         2.04565
H           4.58341        -1.83232         3.05931
H           7.46957        -0.46925         0.88815
H           5.71755        -2.34573         3.87710
H           9.39360        -1.38683         2.34972
H           9.32207        -3.69272         6.02264
H           6.88777        -3.34805         5.47363
H           5.74402        -0.30388         0.62475
H           9.16878        -2.10522         3.49401
H           2.82704        -0.43709         0.83694

