%chk=C1dCCdCc2c[nH]nc2NC2dCqCdC1rNNSCNC2.chk
%NProcShared=20
# opt freq b3lyp/6-31g(2df,p)

Title Card Required 

0  1
C           2.28113        -0.11902        -0.09953
C           2.54618         1.14722         0.29584
C           3.10396         1.79659        -0.88402
C           4.48158         1.83671        -0.96171
C           5.19581         1.83802        -2.15164
C           5.04956         3.05639        -2.77234
N           5.94152         3.05498        -3.74265
N           6.62465         1.89740        -3.89592
C           6.13412         1.05980        -2.95224
N           6.55899        -0.27384        -2.93522
C           6.26450        -1.45428        -2.16704
C           6.22292        -1.35239        -0.83402
C           4.90275        -0.66460        -0.37025
C           3.51335        -0.88521        -0.39803
N           7.09398        -2.05043         0.00712
N           7.05126        -1.82029         1.35412
S           5.52694        -1.98951         1.95823
C           4.54079        -3.04141         0.63959
N           4.61003        -3.29251        -1.06437
C           4.93501        -2.20838        -2.33735
H           1.47888        -0.23414        -0.85061
H           3.21074         1.08778         1.16413
H           2.55356         1.73724        -1.81329
H           5.02604         1.80532        -0.03144
H           4.41033         3.86775        -2.45435
H           6.13933         3.86187        -4.33888
H           7.41547        -0.41085        -3.49083
H           5.46615         0.16733        -0.02251
H           3.01037        -1.79680        -0.71234
H           7.19362        -3.05022        -0.21958
H           7.49789        -0.91132         1.53842
H           3.50085        -2.80006         0.93164
H           4.71087        -4.01944         1.06891
H           3.61449        -3.46039        -1.26123
H           4.16333        -1.42885        -2.52242
H           4.88705        -2.76187        -3.28388

