%chk=C1dNNdCSC2dCOCdc3sccc3dCC2dC1.chk
%NProcShared=20
# opt freq b3lyp/6-31g(2df,p)

Title Card Required 

0  1
C           2.63588         0.19760         0.40204
N           2.91348        -0.36105        -0.64724
N           2.87145        -0.92056        -1.70268
C           4.12140        -0.91044        -1.68035
S           5.17532        -1.46837        -2.74680
C           6.64371        -1.04518        -1.94751
C           7.58928        -1.54132        -2.88312
O           8.89436        -1.57669        -2.94876
C           9.78768        -2.02311        -3.79408
C          10.88232        -1.72520        -3.23148
S          12.21142        -2.35088        -4.41884
C          13.23982        -1.76661        -3.28532
C          12.29959        -1.11811        -2.07135
C          10.32754        -0.90295        -1.67201
C           8.63966        -0.44046        -0.80368
C           6.59094        -0.20465        -0.36113
C           4.75247         0.18511         0.37522
H           1.23866        -0.15203        -0.25740
H           4.84013        -0.58008        -1.03366
H           7.42676        -2.04893        -3.84253
H           9.72235        -2.50819        -4.71242
H          14.42887        -2.07898        -3.86175
H          13.55892        -0.93839        -1.72702
H           9.82492        -0.22203        -0.40713
H           3.50854         0.57931         1.12290

