%chk=Cc1c2ccc3c1C2dCd[SH]SSSS3.chk
%NProcShared=20
# opt freq b3lyp/6-31g(2df,p)

Title Card Required 

0  1
C           1.32095        -0.71833        -0.13323
C           2.16412        -2.09378        -0.48042
C           3.19459        -2.11003        -1.43176
C           4.15710        -0.99406        -0.88417
C           4.71873        -1.05082         0.38410
C           4.47493        -2.24554         0.80986
C           3.14692        -2.92003         0.33402
C           3.20161        -3.85515        -0.99354
C           3.47650        -5.27659        -1.35804
S           3.71115        -7.12388        -1.53379
S           4.74208        -7.48568         0.16033
S           6.36304        -6.30968        -0.32123
S           5.57827        -4.79876         0.68823
S           6.24447        -2.98776         0.40452
H           1.58936         0.38859        -0.10860
H           0.74815        -0.82091         0.80075
H           0.59999        -0.62875        -0.96268
H           4.08964         0.05158        -1.15436
H           5.56342        -0.33353         0.71979
H           4.73591        -8.09333        -1.98039

