%chk=CC1dCSS2dCCdCCdNCdCCdCC2dC1.chk
%NProcShared=20
# opt freq b3lyp/6-31g(2df,p)

Title Card Required 

0  1
C           1.13746        -0.14638         0.14098
C           2.92652        -0.10299         0.30336
C           3.09450         1.20264         0.11240
S           4.60060         1.84829        -0.02164
S           5.80503         0.27772        -0.24740
C           5.89170         0.52560         1.79523
C           6.57979         1.77584         1.93174
C           7.07755         1.80451         3.15197
C           7.97887         2.91574         3.23975
N           8.30284         3.12715         4.46023
C           9.57454         3.48758         4.47570
C          10.00219         2.15203         4.40224
C           9.23586         0.77363         3.11010
C           8.06839        -0.00149         1.99494
C           6.26196        -0.80102         1.11651
C           4.52189        -1.02144         0.83652
H           0.66627         0.91073         0.09975
H           0.63125        -0.57266         1.00718
H           0.67675        -0.56926        -0.78580
H           2.40666         2.03446         0.04254
H           5.97326        -0.44950         2.79345
H           6.96155         2.24700         1.01717
H           7.36573         0.82599         3.78163
H           8.55094         3.34035         2.37713
H          10.01938         4.38883         3.89334
H          10.68891         2.46489         5.56773
H          10.23702         1.79612         3.30677
H           7.89174        -1.09110         1.60347
H           3.59834        -1.88853         0.35657

