%chk=CC1dCCdc2ccccc2dNCdCC1dS.chk
%NProcShared=20
# opt freq b3lyp/6-31g(2df,p)

Title Card Required 

0  1
C           0.65208         0.59885         0.12718
C           2.20144         0.39732         0.40326
C           3.29628         0.47644         1.23604
C           4.69147        -0.16576         1.02901
C           5.30098        -1.09010         1.85050
C           6.72291        -1.41910         1.76782
C           7.31749        -2.23350         2.71027
C           6.55788        -2.74862         3.81227
C           5.24543        -2.50103         3.98387
C           4.44934        -1.88416         2.85517
N           3.20302        -2.28128         2.66855
C           2.91389        -2.41770         1.31338
C           1.89680        -1.91054         0.58456
C           2.42735        -0.80300        -0.39612
S           2.79450        -0.56202        -2.02336
H          -0.05306         0.06995         0.78886
H           0.38733         0.05098        -0.81738
H           0.31083         1.59997        -0.11641
H           3.19733         0.80784         2.26567
H           5.25707         0.14914         0.14590
H           7.36354        -0.96138         1.03459
H           8.38342        -2.41697         2.68702
H           7.11086        -3.35963         4.53299
H           4.70815        -2.91933         4.82373
H           3.75284        -2.74435         0.72947
H           1.06586        -1.56954         1.21770

