%chk=CC1dCCdCCdCCqdSrCdCC1dN.chk
%NProcShared=20
# opt freq b3lyp/6-31g(2df,p)

Title Card Required 

0  1
C           2.08237        -0.05523        -0.01649
C           4.15152         0.05924        -0.11048
C           3.38002         1.04113        -0.71318
C           4.43763         1.61195        -1.06700
C           5.11462         2.47456        -1.60624
C           6.38959         2.40624        -1.54478
C           7.29351         3.13292        -2.00988
C           8.18080         1.85629        -1.24254
S          10.35976         1.18376        -0.79845
C           8.99475         2.78815        -1.82826
C           8.18041         1.35953        -0.95453
C           6.36286         0.26981        -0.22682
N           5.38156        -0.75586         0.37709
H           1.14510         0.77395        -0.54223
H           1.19864        -0.01026         0.96984
H           1.19936        -0.92743        -0.49752
H           2.58633         1.67778        -1.10791
H           5.22537         1.16140        -0.79382
H           4.67906         3.18904        -2.05458
H           6.58822         1.60648        -0.98751
H           7.08400         4.00593        -2.56835
H           9.15433         4.01265        -2.57880
H           9.41431         2.45188        -1.55103
H           4.72098        -1.61251         0.96232

