%chk=CC1NCqdOrNdCCdCCdCdCCdS2NdCCdC2S1.chk
%NProcShared=20
# opt freq b3lyp/6-31g(2df,p)

Title Card Required 

0  1
C           3.05143        -0.87007        -0.67150
C           5.20047        -1.73252        -1.60377
N           3.47440        -0.77658        -1.72036
C           4.89577        -0.40583        -1.87604
O           5.60689        -0.06282        -0.62597
N           4.96797        -0.99451        -3.21907
C           6.24495        -1.03775        -3.25193
C           6.73910        -1.47317        -4.67685
C           8.14937        -1.55784        -4.96067
C           8.61820        -2.34928        -6.02069
C           9.82992        -2.04943        -6.38318
C          11.12161        -2.00767        -6.47628
C          11.18143        -2.67306        -7.89200
S          12.11429        -3.44172        -6.40643
N          13.39756        -2.57682        -8.03169
C          12.95405        -3.80783        -8.23251
C          11.43809        -4.00703        -6.45975
C           9.88861        -3.53756        -4.92754
S           7.73163        -2.78688        -3.20883
H           1.61630         0.14129        -0.80557
H           1.83277        -0.10536         0.34818
H           1.40974        -1.09251        -0.26449
H           4.24678        -0.58110        -0.60137
H           2.44864        -0.94511        -2.12680
H           6.97557        -0.89961        -2.27315
H           6.05116        -2.20825        -5.10527
H           8.96029        -1.47652        -3.97906
H           7.94149        -2.86632        -6.61231
H          11.95423        -2.03855        -5.52572
H          11.02704        -3.83702        -8.28874
H          13.97066        -3.30490        -9.62738
H          12.52701        -4.66702        -7.64603

