%chk=CC[SH]1NdCCqdSrC1dCd[SH]SCO.chk
%NProcShared=20
# opt freq b3lyp/6-31g(2df,p)

Title Card Required 

0  1
C           0.99376        -0.07404         0.08258
C           2.49632        -0.03915         0.06720
S           3.32416        -1.50946         0.47696
N           2.37856        -2.83693         0.34681
C           2.98356        -3.79244        -0.29231
C           4.27555        -3.39992        -0.95788
S           5.26863        -4.56416        -1.57644
C           4.40726        -1.95053        -0.79372
C           4.88425        -1.11190        -1.67504
S           5.36191         0.06990        -2.64308
S           5.83242        -0.91569        -4.35711
C           6.54527         0.37517        -5.43165
O           6.82349        -0.13706        -6.73015
H           0.61177         0.93293        -0.12255
H           0.60803        -0.39423         1.05350
H           0.60983        -0.74416        -0.69083
H           2.85230         0.68567         0.80925
H           2.83851         0.31451        -0.90516
H           3.88819        -1.51123         1.69743
H           2.60990        -4.82512        -0.39632
H           6.55537         0.31512        -2.14726
H           7.48622         0.74777        -5.01578
H           5.86049         1.21975        -5.55606
H           7.36647        -0.93195        -6.59736

