%chk=CCc1dc-cdc-c2cccc-2dc-cdc-s-c2ccqc2Nr-cdc-1.chk
%NProcShared=20
# opt freq b3lyp/6-31g(2df,p)

Title Card Required 

0  1
C           1.26970         0.16640        -0.03377
C           2.94829         0.20422        -0.49997
C           4.37122         1.32308        -0.58343
C           4.71735         1.55581         0.64398
C           5.18037         1.84707         2.02588
C           5.86559         2.34310         2.84762
C           6.59174         3.06384         3.78947
C           6.14118         3.19748         5.03410
C           7.02500         4.10000         5.73663
C           8.00554         4.53365         4.91898
C           7.75442         3.89894         3.65996
C           8.33563         4.11698         2.53045
C           8.58146         3.92228         1.07180
C           8.74343         3.18288         0.11089
S           9.16976         1.80508        -0.80015
C           9.76465         2.55254        -2.37309
C           9.06758         2.57767        -3.69500
C           8.18760         3.40352        -3.02758
C           9.73055         3.89784        -2.44717
N          10.29541         4.84040        -1.63878
C           6.62513         2.53201        -2.23794
C           5.63008         1.94142        -1.65836
H           0.77596        -0.59762        -0.68470
H           0.70133         1.08579        -0.20410
H           0.95656        -0.23496         0.96576
H           2.79628         0.01703        -1.54221
H           3.25308        -0.72080         0.05363
H           5.23687         2.71219         5.35943
H           6.88476         4.35674         6.76672
H           8.82498         5.19918         5.12440
H           8.97261         1.73878        -4.38799
H          11.33174         5.00317        -1.57385
H          10.23332         4.57096        -0.65761

