%chk=CCSC1d[SH]C2d[SH]CqdC1SrCC2.chk
%NProcShared=20
# opt freq b3lyp/6-31g(2df,p)

Title Card Required 

0  1
C           1.02582        -0.05163        -0.02660
C           2.53448        -0.03031         0.05912
S           2.94436         0.61387         1.69547
C           4.69934         0.50897         1.55046
S           5.47328         2.01188         0.78889
C           6.97034         1.89796         1.47794
S           7.02250         1.60110         3.26889
C           6.78237        -0.16666         2.47567
C           5.49209        -0.54643         2.08818
S           4.75860        -2.03440         2.75287
C           8.03441        -0.27212         1.56799
C           8.11419         1.13973         0.84087
H           0.70570        -0.45150        -0.99106
H           0.61594         0.95947         0.07586
H           0.59840        -0.68167         0.76162
H           2.95839         0.61399        -0.71778
H           2.94641        -1.03710        -0.06305
H           4.93608         2.85949         1.64442
H           8.32568         1.44503         3.19584
H           5.85004        -2.62627         3.25295
H           8.05367        -1.14170         0.89603
H           8.86340        -0.42102         2.27022
H           8.08076         1.11600        -0.24843
H           9.01006         1.72700         1.11104

