%chk=CdCNdc1cccc2cccccc1-2.chk
%NProcShared=20
# opt freq b3lyp/6-31g(2df,p)

Title Card Required 

0  1
C           0.96165         0.19831         0.04888
C           2.29023         0.32745         0.10585
N           2.93363         1.47948         0.56131
C           4.24429         1.56745         0.54120
C           5.07705         0.38957         0.02096
C           6.33718         0.51082        -0.36155
C           7.11430         1.57950         0.16158
C           6.61855         2.59362         0.86130
C           7.64576         3.34763         1.56473
C           7.31177         3.91132         2.69336
C           6.83903         5.26993         2.53499
C           5.53640         5.33650         2.17518
C           4.71208         4.11890         1.54162
C           5.14075         2.88866         1.01329
H           0.49249        -0.72130        -0.30001
H           0.32763         1.01627         0.35192
H           2.81442        -0.56279        -0.24178
H           4.64338        -0.59076        -0.13635
H           6.85465        -0.29170        -0.88202
H           8.18785         1.38685         0.13335
H           8.60470         3.54214         1.07838
H           6.44483         3.44985         3.22011
H           7.49515         6.02359         2.97742
H           5.03774         6.22041         2.61445
H           3.64183         4.34406         1.58745

