%chk=CdNC1dCCdCqOrCdCCdC2CdCC21O.chk
%NProcShared=20
# opt freq b3lyp/6-31g(2df,p)

Title Card Required 

0  1
C           2.92424        -1.32878        -0.33852
N           4.58960        -2.17175        -0.67881
C           6.35389        -3.24037        -1.07498
C           5.60546        -1.82649        -0.50680
C           5.87352        -2.86505         0.42825
C           7.11576        -2.41339         0.66142
O           7.64024        -1.17156        -0.06656
C           7.48254        -3.81633         0.70579
C           8.74439        -3.47933         0.72972
C           9.02582        -5.08840         0.68020
C          10.14494        -4.67618         0.28554
C          11.43721        -3.95402        -0.03614
C          10.78863        -4.68275        -0.90063
C           8.60870        -4.26910        -1.09267
O           9.80542        -5.91136        -1.32658
H           1.89840        -0.01240        -0.12604
H           1.31559        -1.26212        -0.11401
H           5.20603        -0.56232        -0.01854
H           4.78223        -3.69107         0.17293
H           6.86412        -0.55060        -0.04106
H           6.90099        -4.83938         0.04872
H           9.39484        -2.85473        -0.04888
H           8.81467        -6.15674         0.10951
H          11.82652        -2.95242         0.01242
H          12.24905        -5.12228        -0.33048
H          11.09846        -6.48084        -1.09530

