%chk=CdNC1dCCdCCdCCdC1CdO.chk
%NProcShared=20
# opt freq b3lyp/6-31g(2df,p)

Title Card Required 

0  1
C           0.94592        -0.06529         0.01945
N           2.22508        -0.17628        -0.10355
C           2.91676        -1.09741         0.66433
C           2.53733        -2.37969         0.55162
C           3.00977        -3.68340         0.88694
C           4.12625        -4.18439         1.41062
C           5.27474        -3.60171         2.01202
C           5.63121        -2.34972         2.29343
C           5.09837        -1.03938         2.03603
C           4.05409        -0.49697         1.37174
C           4.17753         1.03220         1.40637
O           3.37817         1.86274         0.97713
H           0.42240         0.70411        -0.57124
H           0.31519        -0.70093         0.66418
H           1.61587        -2.51616        -0.02055
H           2.30842        -4.44609         0.53720
H           4.18242        -5.27630         1.40124
H           5.98276        -4.36951         2.33903
H           6.57392        -2.29025         2.84920
H           5.79832        -0.33933         2.50517
H           5.08976         1.42297         1.88444

