%chk=CNC1CdCdCCdCCdCCdCCdCCdCSS1.chk
%NProcShared=20
# opt freq b3lyp/6-31g(2df,p)

Title Card Required 

0  1
C           1.34806         0.79510        -0.44459
N           2.61273         1.80140        -1.47967
C           3.39767         3.32525        -2.58980
C           4.45107         2.19452        -1.41409
C           5.54821         2.65571        -1.05268
C           6.09172         3.63220        -1.59968
C           5.86170         3.94942        -2.97064
C           6.48466         4.98760        -3.50701
C           6.42980         5.34475        -4.90688
C           7.00563         6.44025        -5.39572
C           6.98649         6.68163        -6.83234
C           7.58852         7.75366        -7.36098
C           7.48350         7.96882        -8.81176
C           7.84894         9.19163        -9.24966
C           6.28946         9.50573        -9.47773
C           5.52703         9.05621        -7.96846
S           4.58196         7.49218        -6.21029
S           3.78072         5.31828        -4.48791
H           1.15413        -0.46169         0.17091
H           0.68374         0.32648        -1.16795
H           0.83136         1.18309         0.47460
H           3.11546         0.69512        -1.22309
H           2.61329         2.44727        -2.82485
H           4.62810         1.05009        -0.70188
H           6.69700         4.11887        -0.90929
H           5.17263         3.39818        -3.62622
H           7.06460         5.58751        -2.83589
H           5.75056         4.83783        -5.61830
H           7.47129         7.14732        -4.72808
H           6.14019         6.22628        -7.43371
H           7.91043         8.58617        -6.69977
H           6.43231         7.68517        -9.29226
H           8.39464         9.97022        -8.62900
H           6.45519         9.47223       -10.86278
H           6.37119        10.26655        -8.38055

