%chk=CNCC1dc2ccccc2dCCdCCdCCdS1N.chk
%NProcShared=20
# opt freq b3lyp/6-31g(2df,p)

Title Card Required 

0  1
C           1.06227         0.41201        -0.88505
N           2.26168         1.19364        -0.87069
C           3.01572         1.28937         0.39516
C           4.04991         0.39535         0.93714
C           4.83039         1.14870         1.97978
C           6.42812         1.35405         1.92771
C           7.16978         2.06573         2.84272
C           6.61110         3.01706         3.77842
C           5.31665         3.31412         3.64893
C           4.37380         2.48137         2.81350
C           3.12427         2.88250         3.08521
C           1.95985         2.15570         2.86661
C           0.75576         2.58558         2.42762
C           0.26853         1.46528         1.82965
C          -0.74901         0.57789         1.59996
C           0.15490        -0.85692         0.96889
S           2.53403        -1.30941         0.95903
N           3.22632        -1.37764        -0.97498
H           0.82613        -0.58133        -1.34082
H           0.18761         1.01033        -0.76739
H           1.27817         0.08116         0.05512
H           2.77270         0.72373        -1.56078
H           2.54749         0.90219         1.28751
H           3.14162         2.33168         0.56536
H           6.99660         0.93803         1.10360
H           8.26710         2.06302         2.88630
H           7.25580         3.56904         4.48007
H           4.92339         4.14740         4.24493
H           2.87360         3.67083         3.77559
H           1.87960         1.57665         3.77193
H           0.08791         2.94785         3.18199
H           1.02306         0.99809         1.36604
H          -1.71911         1.00350         1.88753
H          -0.65611        -1.13938         0.11892
H           4.22739        -1.70548        -1.08169
H           3.53745        -0.50469        -1.46811

