%chk=CNCdCC1dCCdCCdCCdC[SH]dCCS1.chk
%NProcShared=20
# opt freq b3lyp/6-31g(2df,p)

Title Card Required 

0  1
C           1.16721         0.10904         0.04878
N           2.96089         0.24472         0.29899
C           4.16308         1.06963         1.60743
C           5.85339         1.70731         2.34138
C           7.53771         2.71740         3.35594
C           7.24484         1.50115         2.38655
C           7.87767         1.87903         3.70243
C           9.30312         1.71515         3.38896
C          10.33791         1.88104         4.31513
C          11.49344         2.37793         4.12709
C          11.90791         2.84917         5.24260
C          13.17326         2.79597         5.39855
S          12.51456         3.35268         7.51101
C          14.16019         3.82579         6.25821
C          12.07506         4.43307         6.03763
S           9.56430         3.80420         4.92645
H           0.75747        -0.42494        -0.89199
H           0.72167         1.10220        -0.00734
H           0.72126        -0.44793         0.87263
H           3.12546        -0.29763        -0.67545
H           2.92243         1.18325         1.91065
H           5.56998         0.75617         1.07344
H           7.48266         0.86265         1.44685
H           6.86873         2.51888         4.74781
H           9.49143         1.45445         2.39160
H          10.40174         2.24264         5.62987
H          11.81389         2.05823         3.29323
H          10.94417         3.46632         6.29457
H          13.95151         2.70750         4.64080
H          13.57069         3.38109         8.26517
H          15.61506         3.46182         5.91074
H          13.61645         4.90312         6.49496
H          13.70127         4.20752         6.76467

