%chk=CSCC1dCSCdCCdCNdNNdC1NdCS.chk
%NProcShared=20
# opt freq b3lyp/6-31g(2df,p)

Title Card Required 

0  1
C           1.01805         0.11328        -0.06727
S           3.02580         0.02800        -0.05911
C           4.22047         1.87178        -0.22519
C           6.24598         2.25700        -0.29343
C           5.16555         3.15466        -0.41732
S           6.54664         3.70620        -0.47115
C           7.36740         4.93928        -0.67294
C           8.58175         4.76735        -1.14117
C           9.21207         6.17850        -0.67513
C          10.75645         6.13598        -0.22388
N          11.12990         7.11543        -0.89307
N          10.79664         5.43151        -1.14453
N           9.74292         3.93111         0.09564
C           8.39339         2.72047        -0.03201
N           7.69489         0.89367         0.04958
C           6.36570        -0.23234        -0.07785
S           5.22258        -2.24217         0.22176
H           0.60917        -0.92871         0.04770
H           0.59826         0.47677        -1.00948
H           0.59828         0.67398         0.77212
H           3.31526         2.36512         0.55100
H           3.31753         2.17343        -1.15631
H           4.81326         4.13422        -0.50845
H           6.98168         5.86455        -0.66957
H           9.42775         3.50658        -1.29587
H           8.96183         7.22187        -0.86238
H          12.08918         5.30664        -0.36960
H           6.83744        -1.53258         0.13118
H           3.64214        -3.02507         0.27638

