%chk=CtCCqSrC1dCCdCCdCCdCSCdC1N.chk
%NProcShared=20
# opt freq b3lyp/6-31g(2df,p)

Title Card Required 

0  1
C           1.09054        -0.02673        -0.03300
C           2.39439        -0.02673        -0.03300
C           3.91439        -0.02673        -0.03300
S           4.54128        -1.68984        -0.50315
C           5.23182         1.61589        -1.63573
C           6.15192         1.05983        -1.08991
C           6.49200         1.90973        -1.91841
C           7.75557         2.06484        -2.05923
C           8.28536         2.90267        -2.83287
C           9.51234         3.16095        -3.28977
C           8.69419         4.84481        -4.91800
C           9.90731         3.97348        -3.95802
S          10.61793         5.20344        -5.11560
C           8.61240         4.03740        -3.82306
C           6.67762         3.16466        -3.11970
N           4.52931         2.69542        -2.69072
H           0.04790        -0.02777        -0.03211
H           4.29335         0.24651         0.94643
H           4.05801        -1.96314        -1.73272
H           6.51929         0.45637        -0.50195
H           5.71480         2.66835        -2.65589
H           8.47551         1.65311        -1.67052
H           7.39048         4.01054        -3.96605
H          10.35130         2.92634        -2.89439
H           9.10628         5.42747        -5.33997
H          11.57957         4.11703        -4.07041
H          10.35877         4.79763        -4.68775
H           3.13527         2.46695        -2.45811
H           3.52633         1.88310        -1.89339

