%chk=NC1dCCdCCdCC2dCCqCdOrC2d[SH]1.chk
%NProcShared=20
# opt freq b3lyp/6-31g(2df,p)

Title Card Required 

0  1
N           2.22156         0.07730        -0.21722
C           3.76781         0.46033         0.37712
C           3.33572         0.10423         1.61533
C           4.39829        -0.53955         2.05493
C           4.94485        -0.30847         3.21081
C           6.23663        -0.54469         2.94634
C           7.09885        -0.42936         3.89221
C           8.20127        -0.35117         3.08394
C           9.38380        -0.90846         3.33222
C          10.05100        -0.06666         2.26414
C          11.18498         0.68330         3.70607
O          12.33525         1.17438         3.73453
C           8.15246         0.34276         1.60023
S           6.09721         0.37129         0.12946
H           1.46346         0.04394         0.55028
H           1.58025         0.25097        -1.01465
H           2.38718        -0.13544         2.09196
H           4.91111        -1.06695         1.26726
H           4.46448        -0.06296         4.09776
H           6.59009        -0.85110         1.94253
H           6.91612        -0.37211         4.92515
H           9.72924        -1.44364         4.27662
H          10.86642        -0.74581         1.90430
H          11.00891         0.31692         4.79629
H           5.78927        -0.33877        -0.98743

