%chk=NC1dCCdS2CdCCdCCdCC2dCCdCC1dO.chk
%NProcShared=20
# opt freq b3lyp/6-31g(2df,p)

Title Card Required 

0  1
N           1.25757        -0.40654         0.21937
C           2.55579        -0.85164        -0.22198
C           3.46137        -1.63763         0.38466
C           4.99003        -1.56520        -0.07060
S           6.20042        -2.91581         0.25256
C           7.58181        -1.96174         0.49629
C           8.46420        -2.91113         1.04477
C           9.84023        -2.71279         0.96546
C          10.41313        -3.90079         0.58352
C          10.32072        -3.86707        -0.93355
C           8.96493        -4.22370        -1.30568
C           7.18605        -3.63789        -1.50452
C           5.88939        -4.18194        -1.89054
C           4.38424        -3.64185        -2.47427
C           3.29795        -2.77265        -2.21761
C           2.87984        -1.19593        -1.68100
O           2.91386        -0.22149        -2.43108
H           0.48678        -0.98287        -0.11457
H           0.98662         0.53264        -0.13094
H           3.02690        -2.62797         0.51583
H           5.33913        -0.52541        -0.26009
H           7.80503        -1.02151         0.06968
H           8.12065        -3.96276         1.03583
H          10.06323        -1.84803         0.31859
H          10.11362        -4.87201         0.98129
H          11.23430        -3.17527        -0.75416
H           9.30741        -5.28594        -1.49730
H           5.19713        -4.41981        -0.98633
H           4.08211        -4.56161        -3.02952
H           2.31153        -3.22286        -2.52172

