%chk=NC1dSqNdSrCdCCdCCdC1SS.chk
%NProcShared=20
# opt freq b3lyp/6-31g(2df,p)

Title Card Required 

0  1
N           0.95363         0.15587         0.05520
C           2.30913        -0.00104        -0.00081
S           2.90405        -1.35196         1.04373
N           2.66127        -2.54095        -0.12013
S           1.26984        -3.12178         0.05225
C           4.65818        -1.16301         0.75688
C           5.30245        -0.14873         1.37299
C           4.64475         0.95443         2.04882
C           3.94713         1.89910         1.38345
C           3.80741         1.89370        -0.06022
C           3.10961         0.97802        -0.76476
S           3.10921         1.04500        -2.50375
S           2.01799        -0.57883        -3.11645
H           0.58389        -0.79074         0.28586
H           0.47954         0.60790        -0.70269
H           5.21897        -1.89496         0.18781
H           6.38111        -0.08606         1.30819
H           4.65720         0.94404         3.13143
H           3.40172         2.66200         1.92388
H           4.37209         2.66297        -0.57418
H           2.17130        -0.51989        -4.44348

