%chk=NCC1dc2c3nccccncqc2d3rdCdC1.chk
%NProcShared=20
# opt freq b3lyp/6-31g(2df,p)

Title Card Required 

0  1
N           1.10780        -0.06064         0.16504
C           2.88722        -0.29659         0.74402
C           3.86898        -1.05974         2.40281
C           5.05385        -1.36555         3.26039
C           6.27531        -1.39473         3.17651
N           6.83059        -0.97735         2.14765
C           6.99281        -1.70255         3.16921
C           8.39208        -1.74401         3.68650
C           8.22727        -2.42988         4.83551
C           9.77770        -2.59038         5.49713
N           9.36129        -3.08405         6.56044
C           7.60392        -2.57564         6.33599
C           6.49772        -1.96316         4.86171
C           6.07756        -2.16209         5.24694
C           4.25565        -1.61827         4.11627
H           0.81241         0.43455        -0.82243
H           0.67203         0.63399         0.76978
H           2.96453         0.92410         0.15409
H           2.96683        -0.61523        -0.58274
H           5.52850        -2.57343         3.87086
H           9.27129        -1.49177         3.22351
H           6.82944        -3.12434         5.73948
H          10.75689        -2.35784         5.01615
H           3.16692        -1.74326         3.72355

