%chk=NCqdSrNd[SH]c1ccc2cqc1rCdCCdCCdC2.chk
%NProcShared=20
# opt freq b3lyp/6-31g(2df,p)

Title Card Required 

0  1
N           1.16830         0.04817        -0.12901
C           2.55498         0.06089        -0.07283
S           3.13186         0.47543         1.46849
N           3.19316        -0.25793        -1.23607
S           4.72133        -0.05602        -1.23480
C           5.19607        -0.69607        -2.86313
C           5.57289        -0.02967        -4.01965
C           6.01780        -0.86831        -5.28685
C           6.02385        -2.42002        -5.36958
C           5.52876        -2.77647        -4.13774
C           5.40129        -2.02649        -2.97612
C           4.46545        -3.67034        -4.35525
C           4.24098        -4.82688        -3.56796
C           3.98052        -5.97829        -4.49678
C           5.19100        -6.51483        -4.30604
C           6.07897        -5.63807        -5.47549
C           6.17865        -4.15041        -6.02321
H           0.65050         0.28866         0.71097
H           0.63153        -0.16497        -0.95435
H           5.05452        -1.08755        -0.46033
H           5.59499         1.07255        -3.89914
H           6.31846        -0.08593        -6.02559
H           5.31142        -2.68117        -2.12805
H           4.08522        -3.76810        -5.33484
H           4.89436        -4.84589        -2.68522
H           3.87554        -5.97794        -5.62372
H           5.15048        -6.75505        -3.20062
H           5.98782        -6.65825        -5.99783
H           5.91593        -3.96537        -7.09842

