%chk=Ndc1cnc2cnc3ccqc-3c1rdNCdCCdCCdCCdCCd2.chk
%NProcShared=20
# opt freq b3lyp/6-31g(2df,p)

Title Card Required 

0  1
N           1.51341         0.10079        -0.09237
C           3.41984         0.17553        -0.39547
C           4.64366         0.59096        -2.35488
N           6.45045         1.09002        -3.49466
C           8.49741         1.28873        -4.96283
C           6.98464         0.86566        -3.19095
N           7.70070         1.09889        -4.13728
C           8.71395         0.87942        -3.21479
C           9.96229         1.22722        -4.59093
C           9.64590         0.83173        -3.02317
C           7.72591         0.45886        -1.52886
C           5.73547         0.20392        -0.50514
N          11.00433         1.16742        -4.36993
C          12.51676         1.38646        -5.24871
C          13.14372         1.61701        -6.17462
C          14.77174         1.61297        -6.15752
C          15.22709         1.85119        -7.11302
C          16.90196         1.99182        -7.67705
C          17.64201         2.33354        -9.04976
C          15.57547         2.18068        -8.42909
C          13.27995         1.96099        -7.53301
C          10.77035         1.60607        -6.24028
H           0.54081         0.29525        -0.87257
H           2.76773         0.62538        -2.20176
H           6.38937         0.49510        -1.67598
H           9.33638         1.67016        -6.38377
H           4.41382        -0.10181         0.72080
H          13.46670         1.30944        -4.93998
H          12.18094         2.02146        -7.79684
H          15.75156         1.57750        -6.01517
H          14.55644         2.33278        -9.04458
H          17.86717         1.87303        -7.20057
H          17.36755         2.66316       -10.36987
H          17.61237         2.23622        -8.65772
H          15.09100         2.14248        -8.28101
H           8.90097         1.45767        -5.54669

