%chk=Ndc1ccc2[c]cnccn-2cc2cc1-2.chk
%NProcShared=20
# opt freq b3lyp/6-31g(2df,p)

Title Card Required 

0  2
N           1.93852        -0.23853        -0.78404
C           3.04994         0.39026        -0.51864
C           3.18545         0.94525         0.85799
C           4.45478         0.81760         1.25670
C           5.19213         1.98181         1.64761
C           4.97371         2.48725         2.79968
C           5.26707         3.23959         3.93837
N           6.33386         3.95629         3.85950
C           7.15818         4.03460         2.74531
C           7.13895         3.46083         1.51735
N           6.25450         2.53115         0.90299
C           6.39951         2.14688        -0.44678
C           5.55001         1.42147        -1.15514
C           5.30500         0.76607        -2.32697
C           4.34396         0.65814        -1.40822
H           1.28637        -0.31936         0.03472
H           2.49241         1.71934         1.17369
H           5.07092         0.03395         0.81174
H           4.60060         3.15435         4.80406
H           7.98484         4.72053         2.93292
H           7.95691         3.75847         0.85538
H           7.35002         2.48718        -0.87607
H           5.91120         0.64257        -3.18950

