%chk=Ndc1cccccc2cqC3dCCdC3rc-2[nH]1.chk
%NProcShared=20
# opt freq b3lyp/6-31g(2df,p)

Title Card Required 

0  1
N           2.76863        -0.44830        -0.11486
C           4.00967         0.20350         0.16010
C           3.05290         1.30168         0.67083
C           4.07245         1.94337         0.91243
C           4.65466         3.02636         1.37239
C           5.92066         2.85459         1.32490
C           7.08214         3.44510         1.58851
C           7.84177         2.45975         1.14916
C           9.07344         2.12027         0.94875
C          10.35565         3.60367         1.60990
C          10.88842         4.95389         2.21406
C          12.40800         4.67131         2.09723
C          11.96834         3.47136         1.56146
C           7.69378         1.10648         0.51819
N           5.92145         0.23769         0.18688
H           1.69992         0.15850         0.14468
H           2.29320         2.00599         0.91726
H           4.87749         1.43580         0.68359
H           4.23280         3.85862         1.73515
H           6.15062         1.94224         0.88474
H           7.02349         4.44113         1.97034
H          10.91983         6.01888         2.66888
H          13.44111         5.36646         2.38609
H          12.30838         2.56280         1.14529
H           5.90220        -0.73253        -0.21325

