%chk=NdC1c2ccsc2CdCNdCCdC2NdS12.chk
%NProcShared=20
# opt freq b3lyp/6-31g(2df,p)

Title Card Required 

0  1
N           1.20498        -1.15218         0.70187
C           2.42050        -1.50754         0.36247
C           3.05499        -0.16959        -0.65845
C           2.57645         1.37872        -0.92401
C           3.23719         2.08407        -1.95122
S           4.42408         1.15299        -2.64169
C           4.07814        -0.17469        -1.63209
C           4.95247        -1.17124        -2.00943
C           4.97007        -2.10749        -1.15933
N           5.45500        -3.33881        -1.37391
C           4.92938        -3.90818        -0.37813
C           4.96193        -5.20226         0.08106
C           4.10763        -5.12854         1.13962
N           3.18084        -4.57393         1.68835
S           2.37741        -3.51121         1.24643
H           0.98493        -0.26563         0.26312
H           1.79604         1.96210        -0.44007
H           3.15821         3.07584        -2.40674
H           5.56591        -1.22461        -2.88765
H           4.42164        -1.86512        -0.24371
H           4.47622        -3.29877         0.39750
H           5.82743        -5.77572        -0.21207

