%chk=Ndc1ccc2cqcn1rdCCdCCdCSNdCd2.chk
%NProcShared=20
# opt freq b3lyp/6-31g(2df,p)

Title Card Required 

0  1
N           1.39989        -0.02617        -0.03788
C           2.94049        -0.14747         0.17786
C           3.42359        -0.93713         1.58235
C           4.87509        -1.26390         2.16353
C           6.58019        -1.79320         3.10494
C           6.71843        -1.08973         1.85376
C           6.11846        -0.22409         0.31414
N           4.65538         0.15126        -0.35345
C           7.23527        -1.68701         2.91606
C           8.86908        -1.57580         2.71826
C           9.52328        -2.13946         3.72078
C          11.04636        -2.35683         4.10740
C          10.98896        -3.21765         5.63843
S          12.03721        -2.74189         4.79225
N           9.66358        -2.87556         5.02999
C           8.02571        -2.43292         4.24273
H           0.61843        -0.45141         0.71846
H           2.44768        -1.15846         1.97599
H           4.82092        -0.69885         1.15854
H           7.54388        -0.27013         0.39603
H           6.51960        -2.46786         4.30488
H           9.50317        -1.20247         2.05427
H           8.52616        -2.98030         5.21628
H          11.62962        -1.86123         3.22593
H          10.72421        -3.69804         6.49283

