%chk=NdCdCCCdC1NdCCdCCdCCdCd[SH]C1dO.chk
%NProcShared=20
# opt freq b3lyp/6-31g(2df,p)

Title Card Required 

0  1
N           1.27900        -0.00499         0.08977
C           2.46047        -0.04518        -0.03918
C           3.82437        -0.03279        -0.10207
C           4.80924         0.65602        -1.46532
C           6.66937         0.62673        -1.96169
C           8.07969         0.80275        -2.83717
N           8.80452         0.44797        -1.75179
C           9.59747         1.43023        -1.77779
C          10.89459         0.95468        -1.62498
C          11.68821         1.54681        -2.45910
C          13.05524         1.33439        -2.24192
C          13.81237         2.30560        -2.77836
C          14.70536         1.79031        -3.77047
C          13.60136         1.42543        -4.53730
S          11.80943         1.38354        -5.13740
C           9.52989         1.27522        -4.28730
O           8.99743         2.20224        -4.92552
H           0.68502        -0.81699        -0.18707
H           4.25999        -0.41803         0.83055
H           4.39094         1.67328        -1.35414
H           4.30761         0.03855        -2.19997
H           6.80059         0.29358        -0.83285
H           9.41918         2.33901        -2.40187
H          11.15196         0.29301        -0.85884
H          11.32092         2.26662        -3.20913
H          13.43840         0.55172        -1.62393
H          13.20263         3.06277        -3.30269
H          15.53568         1.32737        -3.07675
H          12.94843         2.00920        -5.96752

