%chk=NdCqNrC1dNNdCNdCCdCCdCCdC1N.chk
%NProcShared=20
# opt freq b3lyp/6-31g(2df,p)

Title Card Required 

0  1
N           1.37590        -0.18873         0.26548
C           3.04771        -0.61206         0.79868
N           3.06171         0.59736        -0.72462
C           4.51421        -1.77162         2.25917
N           4.64125        -0.84990         1.09824
N           5.37588        -1.42540         1.82310
C           6.53727        -1.39602         1.78609
N           7.25937        -1.98086         2.52272
C           8.40081        -1.97400         2.51408
C           8.88689        -2.65411         3.37070
C          10.31394        -2.73057         3.46701
C           9.51004        -3.37509         4.27880
C          10.50071        -3.77755         4.78571
C           8.17254        -3.62854         4.59803
C           6.23159        -2.88513         3.66167
N           4.14801        -2.52229         3.20466
H           0.59123         0.53485        -0.64589
H           2.47429         1.29686        -1.60566
H           3.99518         0.83680        -1.02621
H           6.93406        -0.87290         1.12721
H           9.06825        -1.59189         2.03281
H           7.37901        -3.11622         3.95274
H          11.23484        -2.44887         3.11219
H           9.82860        -4.60103         5.82290
H          12.19642        -3.52383         4.46614
H           9.97476        -4.02880         5.10216
H           2.61821        -2.35691         2.99636
H           2.89449        -1.91357         2.43797

