%chk=NNc1ccc2c3cqcc[nH]1rdNCdNCdNCdCCdC2Nd3.chk
%NProcShared=20
# opt freq b3lyp/6-31g(2df,p)

Title Card Required 

0  1
N           1.08801         0.00984        -0.02830
N           2.71046         0.02781         0.02585
C           3.76698        -0.28455         1.26926
C           5.42853        -0.40932         1.79560
C           6.82676        -0.80568         3.45991
C           8.50157        -1.03417         4.42581
C           7.42661        -1.15305         4.91036
C           8.86421        -0.80595         3.45552
C           8.61211        -0.46982         2.04686
C           7.19998        -0.33015         1.46162
N           5.27473        -0.46216         2.01368
N          10.19822        -0.90653         3.87986
C          11.40371        -0.96064         4.10924
N          12.01051        -1.20192         5.12355
C          13.24679        -1.14343         4.87722
N          13.82330        -1.38470         5.89180
C          14.88323        -1.52697         6.48896
C          13.76963        -1.75033         7.42761
C          11.65547        -1.65407         7.02294
C          10.00916        -1.41155         6.00528
N           8.21227        -1.42662         6.06655
H           0.69669         0.25255        -0.98398
H           0.67739         0.74042         0.56798
H           3.00611         0.23354        -0.92602
H           5.37799        -0.07378         0.38334
H           5.47428        -0.87819         3.76125
H           9.96775        -0.45601         1.98881
H           7.95136        -0.11514         0.55728
H           3.98153        -0.59920         2.58396
H          11.85725        -0.76156         3.27270
H          14.06454        -1.01241         4.32625
H          15.91134        -1.41328         6.01115
H          14.86528        -2.00132         8.48198
H          13.05632        -1.81359         7.69322

