%chk=NNdCCdCC1dCC1CNdS.chk
%NProcShared=20
# opt freq b3lyp/6-31g(2df,p)

Title Card Required 

0  1
N           1.03622         0.10355        -0.00942
N           2.34741         0.10529        -0.01067
C           2.92049         1.04548        -0.68468
C           4.36226         1.07011        -0.70233
C           5.16492         1.93694        -1.32375
C           6.54733         1.81314        -1.23505
C           7.68077         2.27097        -1.56327
C           7.65934         1.03333        -0.67587
C           6.91533        -0.04580         0.09765
N           7.70780        -1.05350         0.82006
S           6.79934        -2.05249         1.53622
H           0.59937        -0.63656         0.52115
H           0.50954         0.79726        -0.50673
H           2.40561         1.83107        -1.24785
H           4.70177         0.23570        -0.10416
H           4.78443         2.75927        -1.91327
H           8.09392         3.06738        -2.13411
H           8.72333         0.90127        -0.58134
H           6.30924        -0.58649        -0.65498
H           6.30923         0.49336         0.85135

