%chk=NNdc1ccccc2ncncccc-2s1.chk
%NProcShared=20
# opt freq b3lyp/6-31g(2df,p)

Title Card Required 

0  1
N           1.34730         0.00221        -0.10955
N           3.18317        -0.09969        -0.80795
C           4.47338        -0.30025        -2.18251
C           4.92533        -0.11616        -0.92085
C           5.57536        -0.27667        -2.02094
C           7.41919        -0.27161        -1.98626
C           8.32719        -0.47480        -3.37883
C           9.51662        -0.44023        -3.14190
N           9.25530        -0.65571        -4.61876
C          10.65840        -0.59803        -4.22345
N          10.48032        -0.88552        -6.19375
C          12.16491        -0.77576        -5.44155
C          13.00836        -0.95813        -6.69140
C          11.59856        -0.76003        -5.33369
C           9.31748        -0.69710        -4.90243
S           6.64865        -0.55126        -3.90287
H           0.66793         0.14787         0.88872
H           0.58373        -0.09945        -0.80634
H           5.14734         0.02272         0.03102
H           4.92076        -0.48628        -3.45755
H           7.43155        -0.12548        -0.98474
H           7.66287        -0.70673        -4.96843
H          11.53901        -0.50831        -3.60851
H          13.54086        -0.66620        -4.69063
H          13.19424        -1.13805        -7.92456
H          13.33146        -0.85611        -5.99220

