%chk=NNdCdCCqdCNdSrc1ccnnc1.chk
%NProcShared=20
# opt freq b3lyp/6-31g(2df,p)

Title Card Required 

0  1
N           0.93485         0.10658         0.36820
N           2.29145         0.05684         0.29835
C           2.85764        -0.87972         0.75709
C           3.57101        -1.83712         1.29515
C           4.42281        -2.83002         0.58178
C           4.48815        -2.79894        -0.78300
N           3.86740        -1.91865        -1.61772
S           4.10462        -2.15818        -3.08007
C           5.17826        -3.89090         1.35364
C           4.55332        -4.59065         2.38875
C           5.26598        -5.53600         3.11361
N           6.56242        -5.82159         2.88154
N           7.19732        -5.15932         1.88207
C           6.51289        -4.22904         1.14297
H           0.61044         0.54240        -0.50245
H           0.52145        -0.82547         0.37718
H           3.61768        -1.86056         2.37428
H           5.10018        -3.58771        -1.23298
H           3.51277        -4.40786         2.62462
H           4.80608        -6.09660         3.91974
H           7.10985        -3.75195         0.37240

