%chk=NSc1ccnccccsc1d[SH]CSS.chk
%NProcShared=20
# opt freq b3lyp/6-31g(2df,p)

Title Card Required 

0  1
N           1.18180        -0.40021         0.17231
S           2.77157        -0.91377         0.19909
C           3.98456        -2.39550         0.68619
C           5.07388        -1.70303         0.44736
C           6.11113        -2.59144         0.43867
N           7.36593        -2.59940         0.63664
C           7.48254        -3.81239         1.21918
C           8.50163        -4.65835         1.49872
C           8.06408        -6.18692         1.67338
C           7.83021        -6.20855         0.37914
S           5.58126        -5.81212         0.34559
C           4.02743        -4.31263         0.78151
S           1.96444        -4.09001        -0.04458
C           0.34153        -4.33373         0.86612
S          -1.46072        -3.58735         0.61681
S          -2.74894        -5.31240         1.01676
H           1.02088         0.61720        -0.10489
H           0.69523        -0.37719         1.06461
H           5.28279        -0.66258         0.21394
H           5.65606        -3.53874         0.35908
H           6.57612        -4.27217         1.57759
H           9.35482        -4.23211         0.97123
H           8.23878        -7.35443         1.63313
H           9.22615        -6.08772         0.54132
H           1.72333        -2.74020        -0.17686
H           0.33153        -4.58221         1.91865
H           0.08578        -5.03303         0.07746
H          -4.09128        -5.01746         0.96319

