%chk=OdC1CdCdC1CdCCdS.chk
%NProcShared=20
# opt freq b3lyp/6-31g(2df,p)

Title Card Required 

0  1
O           0.69826        -0.00849        -0.04246
C           1.91367         0.00762        -0.13540
C           2.95707         0.20657        -1.28320
C           3.50075         0.01429        -0.17390
C           3.25358        -0.19469         1.03177
C           2.47621        -0.41621         2.30976
C           3.02778        -0.62551         3.51727
C           2.25232        -0.84542         4.78599
S           2.98173        -1.10453         6.28081
H           2.92329         0.39088        -2.34650
H           1.39111        -0.40251         2.23071
H           4.10373        -0.64662         3.63906
H           1.14944        -0.83260         4.71203

