%chk=Odc1ccc2cqcc1rdCCdCCdCCdCd2.chk
%NProcShared=20
# opt freq b3lyp/6-31g(2df,p)

Title Card Required 

0  1
O           1.54887         0.12355        -0.06379
C           2.80089        -0.11798        -0.09039
C           3.43762        -1.69783        -0.26443
C           4.89096        -2.32609        -0.33363
C           6.60398        -3.38114        -0.44985
C           6.72978        -1.92044        -0.28895
C           6.14226        -0.15947        -0.09496
C           4.56483         0.63167        -0.00782
C           7.31646        -3.12808        -0.42198
C           8.91679        -2.91213        -0.39819
C           9.57032        -4.06815        -0.52553
C          10.92063        -4.33206        -0.55460
C          11.36903        -5.86769        -0.72376
C           9.88251        -5.68541        -0.70368
C           8.04568        -4.67882        -0.59280
H           2.49891        -2.20034        -0.31978
H           4.83362        -1.17350        -0.20667
H           7.48825        -0.43049        -0.12482
H           3.64050         1.68821         0.10857
H           6.61230        -4.73678        -0.59919
H           9.63777        -2.21143        -0.32100
H           8.66570        -5.74002        -0.70970
H          11.72078        -3.70944        -0.48602
H          11.19213        -7.03347        -0.85218
H          11.49934        -5.65939        -0.70082

