%chk=OdC1SCdCSSCdC2CdCdC[SH]dS12.chk
%NProcShared=20
# opt freq b3lyp/6-31g(2df,p)

Title Card Required 

0  1
O           6.54715         1.93388         0.64218
C           6.77081         2.67112        -0.27460
S           4.81508         2.22923        -0.97297
C           5.47764         0.78117        -1.56235
C           6.14697         1.46048        -2.50291
S           7.70019         0.87515        -2.69922
S           8.31716         2.46761        -3.63637
C          10.01774         2.03351        -3.07434
C          10.02270         3.28848        -2.71804
C          10.48694         4.40986        -3.76365
C          11.56391         5.23262        -3.97359
C          12.32663         5.09792        -2.90525
S          11.25182         4.24494        -1.05812
S           9.23768         3.19406        -0.84674
H           5.86248         0.01160        -0.82957
H           5.79826         2.56790        -2.77080
H          10.45461         1.54008        -2.09828
H           9.91594         4.50091        -4.68312
H          13.38837         5.66797        -3.14674
H          12.55305         3.60104        -1.40427

