%chk=OdC1OC2dCCdCC1dCCdCCdCdNSSCN2.chk
%NProcShared=20
# opt freq b3lyp/6-31g(2df,p)

Title Card Required 

0  1
O           3.00507        -1.17039         2.00771
C           4.22240        -2.00784         2.90438
O           3.77018        -1.73901         0.90281
C           4.73433        -1.54414         1.42460
C           4.68882        -0.41702         2.37872
C           5.50283         0.53507         2.04424
C           5.96334        -1.02342         2.92768
C           6.06465        -2.87469         4.52514
C           7.03160        -4.31596         5.88136
C           7.71727        -5.90293         7.71977
C           7.50390        -7.44023         8.88755
C           6.96904        -6.19372         8.94230
C           5.87924        -5.79126         8.01864
N           5.79721        -5.97946         6.76601
S           5.09933        -4.07265         6.09555
S           5.18712        -4.86151         3.93485
C           5.38894        -3.21055         2.99574
N           4.95914        -3.02617         1.72803
H           4.83830        -0.24140         3.64150
H           6.01807         1.52587         2.18579
H           5.60751         0.21762         1.60816
H           7.49772        -5.81852         6.79897
H           8.29926        -6.71828         9.31458
H           7.61938        -8.70043         8.66094
H           7.74999        -5.60329         9.67321
H           6.47690        -2.35364         3.16545
H           4.67108        -2.22914         4.19718
H           4.19615        -3.59579         1.69122

