%chk=OdC1CdCdCC2CqdOr[C]CdCCCCN2CNdC1OO.chk
%NProcShared=20
# opt freq b3lyp/6-31g(2df,p)

Title Card Required 

0  1
O           1.23977         0.02354        -0.50827
C           2.42611        -0.13087        -0.36282
C           3.33612        -0.60856        -1.44840
C           4.62431        -0.70558        -1.24007
C           5.86175        -0.96958        -0.84393
C           6.35146        -2.05083         0.20277
C           6.81175        -1.39738         1.57093
O           6.37464        -0.39386         2.12759
C           7.92174        -2.13218         2.11342
C           8.97307        -3.00134         1.74670
C           8.80364        -4.32599         1.65212
C           7.74946        -5.14829         2.32543
C           6.48630        -5.32969         1.48785
C           5.51921        -4.12912         1.59896
N           5.32817        -3.17716         0.48840
C           3.94171        -2.54493         0.69155
N           3.23705        -1.46879         1.53841
C           2.92446        -0.29420         1.04480
O           2.53579         0.81883         1.78003
O           3.28765         2.03560         1.33749
H           2.79686        -1.48950        -1.83119
H           6.64638        -0.36952        -1.28875
H           7.25942        -2.46476        -0.25937
H           9.76437        -2.52288         1.18330
H           9.48414        -4.87334         1.00232
H           7.49570        -4.72393         3.30486
H           8.19018        -6.13066         2.55115
H           5.96299        -6.20556         1.91077
H           6.70973        -5.60603         0.45114
H           5.65703        -3.60731         2.55055
H           4.54365        -4.62372         1.69890
H           3.62243        -2.62596        -0.34847
H           4.62902        -1.81462         1.01618
H           2.64963         2.71903         1.64688

