%chk=OdC1[C]dC2CdNC1dCSS2.chk
%NProcShared=20
# opt freq b3lyp/6-31g(2df,p)

Title Card Required 

0  2
O           2.85638         1.17092        -0.24099
C           3.70493         1.05661         0.61200
C           3.73074        -0.15924         1.38358
C           4.80005        -0.88764         1.32922
C           5.55531        -0.53493         0.00868
N           5.85695         0.69216        -0.37727
C           5.19208         1.60037         0.46630
C           5.95685         2.03717         1.49612
S           6.09781         1.26400         3.06222
S           5.82482        -0.79073         2.74696
H           5.47807        -1.28343        -0.79300
H           6.85057         2.61247         1.25149

