%chk=OdC1CdC2C3dCCdC3C3dCSC3dCCdS2N1.chk
%NProcShared=20
# opt freq b3lyp/6-31g(2df,p)

Title Card Required 

0  1
O           1.18488        -0.06129        -0.19481
C           2.38461         0.05551        -0.01537
C           2.96827         1.07863         0.83917
C           4.28737         0.91870         0.96155
C           5.15349         2.04281         1.33440
C           6.11282         2.40191         2.20868
C           6.24401         3.66771         1.51866
C           5.55210         3.12026         0.50953
C           4.63282         3.41633        -0.47167
C           3.53388         4.07635        -0.87076
S           4.02090         3.97273        -2.54463
C           4.77990         2.64364        -1.67361
C           5.09502         1.43344        -2.14004
C           5.64990         0.34397        -1.33125
S           4.89137        -0.48925         0.07038
N           3.37930        -0.66845        -0.61443
H           2.39533         1.91201         1.20341
H           6.48438         1.95103         3.12485
H           6.59593         4.68573         1.67688
H           2.82233         4.68770        -0.33186
H           4.89040         1.19860        -3.17780
H           6.59087        -0.08488        -1.71628
H           3.12454        -1.46562        -1.18514

