%chk=OdC1NdS2CdCC2dCCdCNdNNdNS1.chk
%NProcShared=20
# opt freq b3lyp/6-31g(2df,p)

Title Card Required 

0  1
O           1.31611         1.29407        -0.46804
C           2.23503         1.52987        -1.27396
N           3.30989         0.74457        -1.40071
S           4.60136         1.19837        -0.73502
C           5.28683        -0.38122        -0.50975
C           5.88991        -0.48725        -1.71502
C           5.42410         0.78508        -2.21736
C           5.48736         1.37755        -3.41752
C           5.03409         2.72977        -3.59839
C           4.94735         3.36761        -4.77032
N           4.62717         4.69309        -4.91874
N           3.45595         5.13650        -4.77592
N           2.46648         4.24465        -4.29504
N           2.56621         3.93396        -3.06383
S           1.74122         2.45373        -2.79627
H           5.31319        -1.05766         0.34710
H           6.48426        -1.26457        -2.18469
H           5.91299         0.85136        -4.25756
H           4.74702         3.25068        -2.68488
H           5.21195         2.85504        -5.68605

