%chk=OdC1CdCd[SH]c2cc3cccc-3ccc2CdC1.chk
%NProcShared=20
# opt freq b3lyp/6-31g(2df,p)

Title Card Required 

0  1
O           1.19461         0.00481        -0.11027
C           2.39059         0.24971        -0.13058
C           3.08497         0.98706        -1.26209
C           4.40295         1.00249        -1.30110
S           5.99773         0.86192        -1.13998
C           6.32275         1.44309         0.63174
C           7.78699         1.74399         0.91284
C           8.35496         2.27205         2.02438
C           9.78437         2.41845         2.34705
C           9.87461         3.02462         3.54975
C           8.54572         3.28943         4.04090
C           7.64517         2.81460         3.17194
C           6.25432         2.99277         3.37395
C           5.30471         2.44177         2.65856
C           5.29393         1.51544         1.53500
C           3.91449         1.09340         1.29202
C           3.31634        -0.07054         0.99413
H           2.47651         1.78357        -1.67889
H           6.41505         1.90356        -1.83085
H           8.48346         1.42400         0.13190
H          10.63069         2.07004         1.77716
H          10.75830         3.27712         4.11909
H           8.31849         3.80274         4.96604
H           5.94453         3.64636         4.18486
H           4.30279         2.78323         2.92563
H           3.30571         1.99429         1.15423
H           3.64902        -1.09537         1.04462

