%chk=Odc1cc2cccc1CdCCdCCdCCdCCdC2.chk
%NProcShared=20
# opt freq b3lyp/6-31g(2df,p)

Title Card Required 

0  1
O           2.14386         0.28956        -1.45614
C           3.46410         0.43521        -2.28020
C           3.06847         0.02667         0.03123
C           4.26897        -0.14938         1.02726
C           5.40643        -0.29678         1.86127
C           6.53190        -0.02475         0.32214
C           6.38136         0.37868        -1.96033
C           5.43753         0.75146        -4.06946
C           5.13948         1.21474        -6.69059
C           5.50016         1.56005        -8.64429
C           4.93554         1.34521        -7.42875
C           6.53745         1.18824        -6.54063
C           4.40699         1.02581        -5.62168
C           4.04866         0.86698        -4.72303
C           3.96134         0.67762        -3.65169
C           4.94499         0.48848        -2.58160
C           4.69204         0.24432        -1.20015
C           4.80672         0.04421        -0.06798
H           2.52804        -0.24196         1.55106
H           4.69809        -0.53205         3.19232
H           7.70154        -0.02558         0.32685
H           6.59189         0.06902        -0.20839
H           4.65327         1.55541        -8.61803
H           6.46685         1.77336        -9.85115
H           3.50710         1.51597        -8.39486
H           6.69391         1.37778        -7.61305
H           3.48970         1.13434        -6.23572
H           5.80829         0.95831        -5.23977
H           3.15005         0.71906        -3.88612
H           6.44336         0.59930        -3.20857
H           3.81589         0.21346        -1.02556
H           5.55234         0.15704        -0.70637

