%chk=OdC1CdCCdCNdCC2dCCdCCdCCdCCdS12.chk
%NProcShared=20
# opt freq b3lyp/6-31g(2df,p)

Title Card Required 

0  1
O           5.10421         2.87381         2.27302
C           6.75231         3.75893         2.96980
C           5.04385         2.43458         1.92724
C           5.30100         1.23307         0.98138
C           6.35126         2.29980         1.82114
C           7.41020         1.79169         1.42115
N           7.80521         2.70317         2.13868
C           8.91860         2.97272         2.35088
C           9.71233         3.77800         2.98481
C          10.90276         4.00623         3.16448
C          11.52574         4.89387         3.86325
C          12.80827         4.76603         3.76261
C          13.70585         5.63820         4.44920
C          15.04977         5.59340         4.41394
C          14.08369         6.18047         4.87609
C          14.56362         6.87043         5.41925
C          12.18492         6.19579         4.88816
S           9.37748         5.00011         3.94689
H           3.36603         2.01441         1.59647
H           5.03980         0.35096         0.28697
H           5.48770         3.66962         2.89949
H           7.34197         0.99975         0.79771
H           9.29278         2.27247         1.79963
H          11.39603         3.34372         2.64294
H          10.86413         5.80061         4.57706
H          13.50915         4.25612         3.36120
H          12.82675         6.88483         5.43058
H          15.86949         5.23968         4.13549
H          14.76561         7.47364         5.89411
H          16.36726         6.63635         5.23497
H          13.55361         7.34285         5.79115

