%chk=Odc1ccccccc2ccnscc1-2.chk
%NProcShared=20
# opt freq b3lyp/6-31g(2df,p)

Title Card Required 

0  1
O           4.56472        -1.91353         1.39043
C           6.44104        -1.98954         1.44364
C           4.33212        -1.41354         1.04041
C           5.88179        -1.36359         1.00545
C           6.26573        -3.11305         2.23015
C           7.84959        -2.03593         1.47612
C           7.21788        -3.19700         2.28891
C           8.84267        -2.93421         2.10494
C           9.33898        -4.26510         3.03663
C           9.92397        -3.30987         2.36793
C          10.19784        -5.21632         3.70253
N          11.57255        -4.51185         3.20937
S          12.74032        -5.56270         3.94502
C          10.88388        -4.12608         2.93933
C           8.83970        -3.24730         2.32415
H           2.66593        -1.70586         1.24505
H           5.07774        -0.26278         0.23483
H           4.84496        -2.96815         2.12871
H           7.35384        -1.02490         0.76835
H           7.06398        -4.10664         2.92571
H           9.41316        -2.03865         1.47802
H          11.44790        -3.01717         2.16303
H          11.08356        -5.85880         4.15230
H          12.73899        -4.74367         3.37166

