%chk=Odc1ccc2ccccc[nH]c3c2CdCCdCCdc13.chk
%NProcShared=20
# opt freq b3lyp/6-31g(2df,p)

Title Card Required 

0  1
O           3.11770        -1.56235        -0.21804
C           4.17524        -2.76901        -0.43703
C           3.51482        -1.37036        -0.18283
C           4.91849        -1.33388        -0.17673
C           5.88905        -2.51712        -0.39065
C           7.07554        -2.37569        -0.36508
C           7.44085        -3.61368        -0.58889
C           8.83882        -3.51717        -0.57145
C           9.41926        -4.85396        -0.81312
C          10.78479        -4.88173        -0.81814
N           9.54580        -5.58774        -0.94578
C           7.44266        -5.19744        -0.87523
C           5.67930        -4.08620        -0.67432
C           3.53538        -4.29186        -0.71150
C           2.19654        -4.14953        -0.68577
C           1.01940        -4.85142        -0.81266
C           1.65549        -6.10421        -1.03915
C           3.74241        -6.12479        -1.04287
C           5.14526        -4.81326        -0.80542
H           2.07960        -2.27032        -0.34603
H           5.10657        -0.31709         0.00709
H           7.28605        -1.43295        -0.19464
H           6.34449        -5.13570        -0.86406
H           9.45394        -2.65326        -0.41526
H           8.49162        -6.29713        -1.07403
H          11.48077        -4.02231        -0.66277
H          10.57660        -6.62727        -1.13371
H           2.77024        -3.46769        -0.56250
H           2.70372        -4.94709        -0.82996
H           0.26156        -4.06415        -0.67033
H           0.75102        -7.17548        -1.23283
H           2.22716        -6.43785        -1.09947

