%chk=OdC1CdCd[SH]C2dCCdCS2dN1.chk
%NProcShared=20
# opt freq b3lyp/6-31g(2df,p)

Title Card Required 

0  1
O           1.79596        -0.40653        -0.51863
C           3.00198        -0.38932        -0.25386
C           3.31537         0.24948         1.08473
C           4.51768         0.60523         1.37992
S           6.09831         0.76582         1.33158
C           6.11979         0.01192        -0.25791
C           6.84151         0.42595        -1.30541
C           6.90090        -0.55138        -2.36684
C           6.16355        -1.65255        -2.13464
S           5.21471        -1.51011        -0.57873
N           3.99842        -0.75148        -1.12406
H           2.47834         0.53262         1.71427
H           6.37332        -0.31936         2.02509
H           7.42954         1.32708        -1.33130
H           7.63364        -0.46696        -3.15950
H           6.37343        -2.57526        -2.66927

