%chk=Odc1c2c1dCNdNCqCSr[SH]dCdCSCdCd2.chk
%NProcShared=20
# opt freq b3lyp/6-31g(2df,p)

Title Card Required 

0  1
O           1.63932        -1.51436        -0.24931
C           2.10042        -2.59939         0.16152
C           3.30792        -2.83817        -0.59409
C           2.69009        -4.09379        -0.25944
C           3.10276        -5.46447        -0.34503
N           3.09939        -6.89209         0.14707
N           3.27627        -8.00495         0.86390
C           3.69326        -8.41175         2.34688
C           3.51639        -9.93307         3.10512
S           1.95902       -10.88975         3.01219
S           5.40588        -7.96415         2.89828
C           5.61118        -6.74944         1.90520
C           5.76506        -5.69547         1.16380
S           5.16807        -4.19361         1.77702
C           5.48944        -3.11297         0.41346
C           4.43827        -2.51509         0.01245
H           3.36534        -5.69489        -1.39994
H           2.95243        -7.87273         2.91914
H           3.62158        -9.75289         4.20676
H           4.33933       -10.66952         2.97177
H           1.11548        -9.95949         3.47925
H           6.17092        -8.91022         2.37841
H           6.30960        -5.76585         0.23231
H           5.99060        -3.48806        -0.48138

