%chk=OdC1CdCCdCCdC2NdCC12SS.chk
%NProcShared=20
# opt freq b3lyp/6-31g(2df,p)

Title Card Required 

0  1
O           4.98316         1.80825        -1.25694
C           5.44257         1.19933        -2.19732
C           3.97244         0.17715        -2.05783
C           4.47775        -0.93030        -1.56990
C           5.03296        -1.20633        -2.87220
C           6.33625        -1.34175        -2.75213
C           6.98882        -1.21080        -4.01502
C           7.91052        -0.45090        -3.53819
N           8.80720        -0.45914        -2.42787
C           9.18695         0.65739        -2.92054
C           7.37669         1.04001        -3.25728
S           7.85413         1.98692        -5.17306
S           7.95086         0.95966        -7.10009
H           2.94852         0.05746        -2.53569
H           5.14371        -0.64984        -0.70658
H           4.65710        -0.59054        -3.79638
H           6.78616        -0.82635        -1.78284
H           6.51076        -0.63476        -4.83097
H          10.13361         0.53353        -3.67009
H           8.15207         1.98412        -8.03812

