%chk=OdCC1dCCdCCdCCdCqSr[SH]d[SH]SS1.chk
%NProcShared=20
# opt freq b3lyp/6-31g(2df,p)

Title Card Required 

0  1
O           1.84955        -0.87590        -0.01577
C           3.13986        -1.20914        -0.01122
C           4.33188        -2.81478         0.07329
C           4.67854        -1.51980        -0.00993
C           5.40493        -2.67008        -0.26202
C           6.65789        -2.17955        -0.14918
C           7.72687        -2.93250        -0.21231
C           8.96266        -3.13502        -0.22185
C           9.29903        -4.41278        -0.57824
C          10.51331        -5.01500        -0.58521
S          11.87986        -3.39034        -0.24820
S          10.83075        -7.31962        -0.60508
S          11.13687        -5.90699         0.26335
S           8.38972        -6.36069         0.19134
S           6.04727        -4.82567        -0.02795
H           3.27299         0.19375         0.05629
H           5.09731        -0.45849        -0.03144
H           4.60267        -4.10763        -0.53331
H           7.07474        -1.23460        -0.04653
H           7.56950        -3.88274        -0.07999
H           9.43195        -2.27121        -0.12615
H           8.20669        -4.90995        -0.87338
H          10.90323        -2.49659        -0.14771
H          11.30940        -7.36826        -1.75289
H          12.85543        -5.91473         0.44092

