%chk=OdCC1dCCdc2cccc3cc-3ccc2dCNdN1.chk
%NProcShared=20
# opt freq b3lyp/6-31g(2df,p)

Title Card Required 

0  1
O           0.96573         0.00202        -0.24535
C           2.19344        -0.01130        -0.19618
C           3.27759         0.31435        -1.39863
C           4.41214         0.15700        -0.81761
C           5.48937         0.61110        -2.49432
C           6.93118         0.65649        -2.66194
C           7.20708         1.02430        -4.02003
C           8.47371         1.07991        -4.22539
C           9.32177         1.36193        -5.26670
C          10.58126         1.28276        -4.97437
C          11.83215         1.37665        -5.32105
C          11.70584         1.01910        -4.00085
C          11.09403         0.61523        -2.50957
C          10.08034         0.34555        -1.51383
C           8.24081         0.31658        -1.40684
C           7.49528         0.00367        -0.25145
N           6.08060        -0.11896         0.20134
N           4.99900         0.19416        -0.95482
H           2.61717        -0.27992         0.79567
H           4.24649        -0.17946         0.42472
H           4.85093         0.84746        -3.36706
H           6.51751         1.23587        -4.80124
H           8.85740         0.83029        -3.30367
H           8.89981         1.61791        -6.21191
H          12.15133         1.64612        -6.31605
H          10.28109         0.76790        -3.07330
H          10.69623         0.10005        -0.60731
H           6.81819         0.19698        -0.96524

