%chk=OdCC1dC2C3dCCdCCdC2C1dNCdCOCdC3.chk
%NProcShared=20
# opt freq b3lyp/6-31g(2df,p)

Title Card Required 

0  1
O           0.90666        -0.11717         0.11262
C           2.08642         0.15360        -0.08871
C           2.62670         1.33649        -0.96826
C           4.01257         1.33340        -0.96596
C           5.08021         2.20322        -1.61272
C           6.41922         1.66271        -1.21082
C           6.95623         2.84993        -2.09358
C           8.28656         2.99948        -2.20478
C           6.43172         3.16965        -2.33131
C           4.51829         2.45478        -1.79977
C           2.32388         2.63573        -1.93431
N           1.01277         3.75290        -2.76499
C           0.46099         4.87202        -3.59712
C           1.34885         4.08135        -3.00921
O           2.60534         4.62549        -3.41381
C           3.46209         3.91515        -2.88563
C           4.69317         3.86819        -2.85071
H           2.85938        -0.57128         0.45027
H           7.19550         1.10535        -0.79639
H           6.77640         4.23592        -3.12414
H           9.09371         2.36168        -1.73054
H           7.85573         3.85325        -2.83961
H           0.88963         5.73298        -4.23729
H           0.56804         2.80398        -2.05941
H           3.42900         3.05528        -2.24627
H           5.39460         4.44391        -3.27880

