%chk=OdNNc1nccc2cqc1dOr[C]dCdCdCN2.chk
%NProcShared=20
# opt freq b3lyp/6-31g(2df,p)

Title Card Required 

0  2
O           1.29045        -0.14285         0.04344
N           2.55321        -0.02664        -0.00389
N           3.31548        -1.17177         0.46254
C           4.83058        -1.70542         0.67990
N           5.07525        -2.87859         1.15775
C           6.46807        -2.95981         1.19083
C           7.54018        -3.73740         1.50755
C           9.42798        -3.10308         1.24919
C           8.19584        -2.89647         1.16503
C           6.52187        -1.38687         0.55015
O           6.45432        -0.22700         0.07772
C           9.18155        -4.55659         1.84122
C          10.49540        -5.34562         2.16261
C          12.03360        -5.62561         2.27665
C          10.94057        -5.26335         2.12909
N          11.01627        -3.64920         1.47163
H           2.62576        -1.88117         0.75148
H           7.69379        -1.79750         0.71740
H           6.99324        -4.62092         1.86742
H          11.62403        -6.51662         2.63957
H          10.85046        -2.72171         1.09385

