%chk=OdNS[C]1CdCd[C]C2dCCdCC2dC1.chk
%NProcShared=20
# opt freq b3lyp/6-31g(2df,p)

Title Card Required 

0  1
O           1.57457         0.29751        -0.11402
N           2.78136         0.05664         0.15484
S           3.88554         1.19902        -0.51989
C           5.65077         1.64775         0.40858
C           5.46670         3.09913         0.14248
C           6.46223         3.83709        -0.12104
C           7.58854         4.09739         0.24249
C           8.16505         3.20122         1.10961
C           8.18531         3.23678         2.46167
C           9.59916         3.09594         2.72670
C          10.04044         2.70544         1.49285
C           8.74067         1.99248         0.48643
C           7.36693         1.34088         0.05892
H           4.53921         3.57764        -0.06645
H           7.79327         2.34977         2.97705
H          10.01539         3.76180         3.51166
H          10.77903         3.54338         1.20560
H           7.14945         0.85395        -0.93614

