%chk=OdSdNC1dCqCdSrCNN[SH]1S.chk
%NProcShared=20
# opt freq b3lyp/6-31g(2df,p)

Title Card Required 

0  1
O           0.81487         0.08851        -0.03450
S           2.37860         0.08621        -0.06570
N           2.98509         1.46423        -0.02443
C           4.39026         1.72345        -0.02561
C           4.93752         2.72488         0.69485
C           4.16518         3.62214         1.64159
S           2.54366         3.70971         2.05950
C           6.40804         3.07342         0.69434
N           7.41850         2.27583         0.01913
N           7.05061         1.31544        -0.94299
S           5.44644         0.85595        -1.06820
S           5.49692        -1.16864        -0.58553
H           4.81816         4.34541         2.16221
H           6.73261         3.08762         1.74430
H           6.51993         4.10619         0.33881
H           8.17046         1.98202         0.64276
H           7.60418         0.45772        -0.83574
H           5.04073         1.04902        -2.33873
H           5.68159        -1.03389         0.73752

