%chk=ONC1dCSNdNCdCC2dCCdCC2dCS1.chk
%NProcShared=20
# opt freq b3lyp/6-31g(2df,p)

Title Card Required 

0  1
O           2.00056         0.73721         0.74348
N           3.57644         0.43579         1.42554
C           5.02751         1.52762         1.76596
C           5.45512         1.25984         0.53374
S           5.98990         2.50634        -0.40572
N           7.45940         2.08250         0.12965
N           7.91574         3.12451         0.54473
C           9.20252         2.95129         0.66306
C           9.92283         3.96457         1.10466
C          10.99247         3.29391         1.60997
C          11.98854         2.95111         0.75982
C          13.12830         2.77177         1.51621
C          12.60230         2.88231         2.78951
C          10.78480         2.88732         3.07039
C           9.10840         2.68033         3.25808
S           6.93250         1.97183         2.95531
H           1.62637        -0.08072         0.20671
H           3.75477        -0.01401         0.47828
H           5.21208         0.35023         0.01772
H           9.58687         1.89851         0.76156
H           9.59804         4.81013         1.71126
H          11.98770         3.01506        -0.32063
H          14.13632         2.84183         1.03946
H          13.46456         3.28361         3.38883
H           9.07722         3.42231         4.10438

