%chk=ONC1dCNdC2CdCqOrCdC2CqOOrdCCdCCdCCdC1.chk
%NProcShared=20
# opt freq b3lyp/6-31g(2df,p)

Title Card Required 

0  1
O           0.92957        -0.00416         0.21232
N           2.27024         0.20241        -0.19875
C           3.55433         0.32396         0.43617
C           4.32891        -1.09274         0.67834
N           4.87647        -2.51350         0.76958
C           6.24353        -2.54154         0.69816
C           7.20254        -3.66599         0.98972
C           8.47403        -3.23476         0.89952
O           9.63297        -3.93202         1.08800
C           8.52464        -1.86625         0.54769
C           7.27478        -1.42372         0.38809
C           7.05850        -0.10124        -0.01354
O           5.83776         0.36624        -0.24868
O           5.14723        -0.24511        -1.33368
C           7.94040         0.85851        -0.10480
C           7.43323         2.04960        -0.53028
C           7.98258         3.10623        -1.03806
C           6.91788         3.88458        -1.82286
C           6.77729         4.53993        -0.67734
C           5.33689         3.48030        -0.18864
C           4.22401         2.06528         0.20552
H           0.49773         0.81529        -0.14333
H           2.29434         1.18227        -0.38036
H           5.27986        -0.81059         0.95304
H           6.82909        -4.62083         1.24686
H           9.42992        -4.85827         1.31992
H           9.38187        -1.21862         0.39054
H           4.37467         0.35927        -1.23727
H           8.96866         0.76998        -0.10308
H           6.39833         2.00425        -0.69427
H           9.05942         3.24747        -0.86402
H           5.73886         4.22030        -2.01857
H           8.02043         5.09083        -1.04466
H           5.49773         4.77704        -0.33403
H           4.43183         1.06934         0.72830

