%chk=SdC1CdCCdCCdCC2dCCdCC12S.chk
%NProcShared=20
# opt freq b3lyp/6-31g(2df,p)

Title Card Required 

0  1
S           5.07026        -1.89475        -2.31408
C           6.02896        -0.66644        -3.54644
C           4.66160         0.12697        -2.44732
C           4.96711         1.00279        -1.44657
C           5.61375         1.65338        -2.51590
C           6.89963         1.41952        -2.38555
C           7.48183         1.81726        -3.54242
C           8.76993         1.56447        -3.37189
C           8.95126         1.14454        -4.61121
C           9.14932         2.10388        -5.57645
C           9.51069         1.32770        -6.65151
C           9.04423         0.07783        -6.15734
C           7.92747        -0.30752        -4.64589
S           9.27042        -2.03775        -4.95588
H           3.48950         0.44464        -2.61329
H           5.51206         0.56843        -0.56654
H           5.15630         1.46997        -3.63058
H           7.35786         0.68304        -1.69554
H           6.91011         1.63122        -4.55817
H           9.32226         0.90049        -2.70642
H           8.53764         2.93972        -5.92233
H          10.12905         1.88653        -7.44893
H          10.25683        -0.10741        -6.02932
H          10.52485        -1.76836        -5.84322

