%chk=SdC1CdCCdCCdNC2dCCdC3NC3C2dNNN1.chk
%NProcShared=20
# opt freq b3lyp/6-31g(2df,p)

Title Card Required 

0  1
S           3.83537        -0.01004        -1.31150
C           5.01198         1.45898        -1.01357
C           4.08988         1.82521         0.21042
C           4.91795         1.61168         1.20096
C           5.52010         2.89849         1.21278
C           6.80986         2.81228         1.22083
C           7.50768         4.01910         1.18280
N           8.71690         3.76674         1.51765
C           9.41772         4.87036         1.44504
C           9.07197         5.79895         2.31895
C           9.80313         6.89834         2.70508
C          10.74507         7.37964         1.98415
N          11.53399         7.68547         0.98208
C          10.65699         6.80404         0.20150
C           9.95141         5.08688         0.10460
N           9.27518         4.12766        -0.95508
N           8.39128         2.58398        -0.79336
N           6.71717         1.61584        -1.19093
H           3.17751         2.43956         0.26215
H           5.57707         0.72575         1.05068
H           4.96477         3.80401         0.93836
H           7.39248         1.89249         1.14644
H           6.98983         4.98087         0.96694
H           8.17387         5.61746         2.88649
H           9.69192         7.08910         3.80797
H          11.62791         8.72270         1.09802
H          10.60949         7.44194        -0.67967
H           8.96709         2.05094        -1.48341
H           6.96968         0.64719        -0.89206

