%chk=Sdc1ccccccc2cccccc-2c1.chk
%NProcShared=20
# opt freq b3lyp/6-31g(2df,p)

Title Card Required 

0  1
S           2.78458         0.45446        -0.12105
C           4.83870         1.35932         0.02953
C           3.57123         1.14809         1.25393
C           4.79843         0.89473         1.55752
C           5.40805         1.87161         2.32897
C           6.69781         1.67513         2.57784
C           7.40337         2.58640         3.31117
C           8.73749         2.30570         3.12715
C           8.97742         3.65277         3.15860
C           9.06304         3.79033         4.71892
C           9.67768         4.54184         5.96480
C          10.77512         5.22095         5.76007
C          10.80912         4.93733         3.92489
C           9.87413         4.21244         2.45768
C           8.36145         3.16186         1.41686
C           6.73793         2.25549         0.56510
H           2.87379         1.87306         1.66051
H           5.19588        -0.12155         1.21998
H           4.89912         2.76351         2.60726
H           7.52225         1.07352         1.76148
H           7.02361         3.65952         3.49792
H           9.59371         1.96751         2.34102
H           8.31685         3.28786         5.23023
H           9.23132         4.50869         6.97247
H          11.18885         5.78546         6.85209
H          11.94992         5.66976         4.58386
H          11.20095         4.71107         2.61021
H           6.21352         0.98934        -0.12165

