%chk=SdC1[C]dC2CdCCdC2CS1.chk
%NProcShared=20
# opt freq b3lyp/6-31g(2df,p)

Title Card Required 

0  2
S           0.71882        -0.46990        -0.04300
C           2.31359        -0.02978        -0.05703
C           3.34459        -1.02092        -0.05102
C           4.62567        -1.11086        -0.05612
C           5.56319        -2.20031        -0.05500
C           6.78387        -1.62402        -0.05778
C           6.64399        -0.17394        -0.05866
C           5.33968         0.14131        -0.05664
C           4.70544         1.48738        -0.02909
S           2.89060         1.62538        -0.09568
H           5.35147        -3.25650        -0.05058
H           7.74350        -2.11975        -0.05428
H           7.46466         0.52705        -0.04647
H           5.08765         2.06153        -0.87868
H           5.02212         1.98904         0.89044

