%chk=SdC1CdCCdCNdCNdCCdCCdCSCdC1.chk
%NProcShared=20
# opt freq b3lyp/6-31g(2df,p)

Title Card Required 

0  1
S           4.02134         0.31862        -0.57323
C           6.56493         0.76809        -1.33840
C           4.25310         0.76516        -1.33341
C           5.59373         0.74292        -1.29556
C           5.43012         1.48640        -2.56123
C           6.71052         1.62968        -2.80514
N           7.46961         2.09272        -3.59342
C           8.67756         2.22168        -3.81296
N           9.12414         2.76389        -4.73600
C          10.23426         2.62724        -4.50337
C          10.84028         3.31756        -5.67856
C          11.91347         3.09583        -5.30109
C          13.48152         3.82585        -6.54386
C          15.04785         3.78164        -6.46860
S          13.44177         2.98281        -5.10868
C          11.05398         2.07765        -3.56777
C           9.03678         1.40143        -2.41657
H           2.86218         1.12748        -1.95021
H           5.48058         0.01822        -0.06183
H           4.77190         1.82467        -3.13710
H           7.41258         1.26537        -2.18495
H           9.87799         1.81175        -3.11510
H          10.82882         1.56592        -2.69661
H          11.09313         3.78867        -6.48056
H          13.37871         2.34011        -4.01457
H          13.21985         4.38529        -7.49623
H          15.74123         3.29364        -5.63784
H          12.43668         2.48836        -4.26695
H           8.06288         0.69304        -1.21064

