%chk=SdC1NdCCdCCdCCdCNdCS1.chk
%NProcShared=20
# opt freq b3lyp/6-31g(2df,p)

Title Card Required 

0  1
S           3.26203        -0.00500        -0.05898
C           5.27173         0.26728        -0.90382
N           3.95166         0.48991        -1.59457
C           5.31688         0.43937        -1.43775
C           5.38058         0.87034        -2.77495
C           6.48235         1.01715        -3.23050
C           7.19099         1.33646        -4.22122
C           8.40150         1.28765        -4.06978
C           9.41736         1.52197        -4.79681
C          10.42555         1.05212        -3.33898
N          10.45946         1.47542        -4.65238
C           9.92459         0.93977        -2.99038
S           7.89005         0.42919        -1.40618
H           6.18975        -0.02822         0.01305
H           4.67547         1.08441        -3.43917
H           7.35484         0.92647        -2.94912
H           6.81081         1.59901        -5.03585
H           8.63031         0.86856        -2.76945
H           9.16828         1.88786        -5.93210
H          11.74654         1.02596        -3.25783
H          11.13727         1.40034        -4.41944

