%chk=SdC1CdCdCCdCCdNCdCS1.chk
%NProcShared=20
# opt freq b3lyp/6-31g(2df,p)

Title Card Required 

0  1
S           3.34142         1.27279        -1.26177
C           4.86541         0.94935        -0.46404
C           4.37847        -0.11447         0.76812
C           5.25384        -0.77754         1.35979
C           6.53450        -0.83733         1.55474
C           7.13804         0.42585         1.37094
C           8.45195         0.47406         1.23591
C           8.87250         1.82388         0.98995
N           9.98914         2.08791         0.42175
C           9.52386         2.89918        -0.59692
C           8.65653         2.26050        -1.49743
S           6.73619         1.36382        -1.46747
H           3.33057        -0.34256         1.11619
H           7.03667        -1.76676         1.63178
H           6.52014         1.33594         1.23742
H           9.05830        -0.39681         1.09787
H           8.05593         2.56822         0.83044
H          10.39814         3.53954        -0.86401
H           9.45350         1.60378        -1.98243

