%chk=SdC1CdCdCd[SH]qdSrC1dS.chk
%NProcShared=20
# opt freq b3lyp/6-31g(2df,p)

Title Card Required 

0  1
S           3.03798         0.73285        -0.72872
C           4.22663        -0.19312        -0.00277
C           3.42672        -1.05927         0.91732
C           4.78712        -1.05927         0.91732
C           6.14752        -1.05927         0.91732
S           7.76747        -1.05927         0.91732
S           8.08885        -2.84817         0.66832
C           6.05869         0.02828        -0.38533
S           6.45239         1.43043        -1.11847
H           2.64211        -1.50938         1.42498
H           8.71184        -0.10258         0.96552

