%chk=SdC1CdCC2dCNdCCdNCqdC1rNdC2.chk
%NProcShared=20
# opt freq b3lyp/6-31g(2df,p)

Title Card Required 

0  1
S           1.93735         0.15210        -0.01509
C           4.21653         0.50221         0.15524
C           3.33357         1.42867         0.59394
C           4.62348         1.60166         0.68186
C           5.68266         3.10327         1.40383
C           6.64925         2.41920         1.07489
N           6.81040         3.23486         1.46710
C           7.99247         1.73525         0.74607
C           8.35478         3.50105         1.59508
N           9.87428         3.53392         1.61089
C           8.14133         2.86269         1.28819
C           6.53087         1.27588         0.52526
N           9.12477         4.52016         2.08508
C           7.17200         4.62205         2.13406
H           2.69716         2.08941         0.91912
H           5.34677         0.88824         0.33883
H           7.53115         0.75494         0.27474
H           9.46691         2.10569         0.92420
H           8.29656         5.27329         2.44718
H           5.60974        -0.11449        -0.14326
H           5.61850         4.27309         1.96629

