%chk=SdC1CdCSCqdSrC1SSSSSS.chk
%NProcShared=20
# opt freq b3lyp/6-31g(2df,p)

Title Card Required 

0  1
S           0.85845         0.06889        -0.04267
C           2.55617         0.00514         0.10062
C           3.30227         1.28826         0.09805
C           4.63691         1.39410         0.12536
S           5.73782         0.10704         0.24747
C           4.80534        -1.35588         0.00157
S           5.68277        -2.72713        -0.45645
C           3.28612        -1.35925         0.14554
S           2.79118        -2.19360         1.77846
S           3.33283        -4.18792         1.65186
S           3.13396        -4.99733         3.53851
S           4.19210        -6.77117         3.51113
S           3.54768        -7.84125         5.15154
S           4.63518        -9.58855         5.14573
H           2.72163         2.20631         0.05836
H           5.07114         2.38831         0.09340
H           2.87462        -1.93581        -0.69762
H           4.18023       -10.16374         6.27312

