%chk=SdCCCd[SH]SC1dCCdCCdCCdCCdCSSS1.chk
%NProcShared=20
# opt freq b3lyp/6-31g(2df,p)

Title Card Required 

0  1
S           0.92807         0.07387        -0.05539
C           2.59332         0.05765        -0.04501
C           3.39683        -1.03090         0.64027
C           4.93357        -0.80378         0.50005
S           6.31933        -2.04639         1.28313
S           8.90986        -2.26068         1.44975
C          10.92740        -3.48719         2.09107
C          10.80143        -2.21454         1.35645
C          11.74430        -3.10410         1.95594
C          12.98681        -2.70833         1.69355
C          14.15010        -3.38210         2.09083
C          15.37443        -3.17408         2.00777
C          15.77951        -4.14866         2.83989
C          17.11021        -4.12794         2.64337
C          18.01190        -5.27665         3.33738
C          19.27827        -4.85633         3.04346
S          18.78553        -6.06428         3.87054
S          15.82803        -6.13186         3.43830
S          12.86999        -4.90330         3.11110
H           3.14396         0.85864        -0.55020
H           3.10544        -1.98837         0.19903
H           3.10609        -1.04341         1.69554
H           5.22920         0.07610        -0.05291
H           5.76296        -3.07375         0.63415
H          10.89060        -1.24835         0.79649
H          11.39783        -4.45344         2.81231
H          13.12013        -1.84308         1.15506
H          14.36654        -4.49244         2.59443
H          15.55887        -2.36130         1.48940
H          14.63782        -5.14604         3.62318
H          17.77826        -3.41887         2.14458
H          17.43741        -6.61499         4.14915
H          20.07012        -4.29665         2.69480

