%chk=SdCC1dc2cc3cqcc21rdCCdCCdC3.chk
%NProcShared=20
# opt freq b3lyp/6-31g(2df,p)

Title Card Required 

0  1
S           0.90449         0.04090         0.14018
C           2.57221         0.10601         0.06589
C           3.31207         0.86344        -0.93735
C           3.47523         1.91121        -1.67712
C           3.95204         2.95140        -2.63564
C           5.07742         2.94720        -3.44259
C           5.82296         1.54879        -3.21433
C           5.44721         0.49239        -2.35504
C           4.41617         0.46789        -1.55614
C           6.96554         1.18964        -3.84844
C           7.44240         2.12277        -4.69416
C           7.97074         2.94196        -5.52903
C           6.97057         4.17728        -5.47709
C           5.71531         4.20942        -4.58920
H           3.20217        -0.45797         0.79155
H           3.25035         3.79110        -2.58568
H           6.10727        -0.37277        -2.37520
H           7.54092         0.30470        -3.77802
H           6.67180         2.69970        -4.43773
H           8.88017         2.54480        -5.96984
H           7.49246         4.83683        -6.21093
H           4.98565         5.02393        -4.50028

