%chk=SdNCSCC1dCCdCCdCCqdSrS1.chk
%NProcShared=20
# opt freq b3lyp/6-31g(2df,p)

Title Card Required 

0  1
S           1.06091         0.00953         0.13748
N           2.57839        -0.06516         0.06071
C           3.31609         0.84619         0.99742
S           5.35150         0.45062         0.59084
C           6.51611         1.47621         1.64498
C           8.43371         1.51525         1.68511
C           8.33467         2.44284         2.64102
C           9.51138         2.81736         3.01834
C          10.62061         3.20236         3.42178
C          11.85131         2.46188         2.65811
C          12.58289         3.25212         3.47030
C          12.44070         2.29844         2.49009
S          14.47141         2.31977         2.51201
S          10.63948         1.08494         1.24281
H           3.08725         0.61280         2.04936
H           3.08725         1.90414         0.79299
H           6.06404         1.35829         2.70403
H           6.06404         2.53810         1.55616
H           7.60759         2.97380         3.18421
H          10.03347         2.24960         2.43990
H          10.46225         3.92706         4.16397
H          12.39950         1.34218         1.50721
H          12.41383         3.98756         4.22620

