%chk=SNN1CdCCdCCdCCdCCdC1.chk
%NProcShared=20
# opt freq b3lyp/6-31g(2df,p)

Title Card Required 

0  1
S           1.23528         0.17650         0.08186
N           3.37093         1.02929         0.00471
N           4.63628         2.95073        -0.03024
C           4.94888         1.57837         0.03795
C           5.50219         2.72706         0.01214
C           6.85030         2.92486         0.00394
C           7.57852         4.22212        -0.02574
C           8.77936         4.07053        -0.02500
C           7.72466         4.79876        -0.03331
C           9.54220         5.51663        -0.06257
C          10.03979         7.04847        -0.10300
C           8.26055         5.93946        -0.08641
C           6.19203         4.84764        -0.06731
H           0.64809        -1.24109         0.10933
H           3.23719        -0.31162        -0.68885
H           5.50493         0.75738         0.05932
H           5.42780         3.82314        -0.00256
H           7.47793         2.22872         0.02051
H           6.72419         5.92073        -0.06933
H           9.60062         3.79261        -0.02008
H           7.67756         6.87778        -0.09275
H          11.09794         5.44436        -0.06124
H          10.30506         8.34771        -0.13510
H          10.01071         6.73299        -0.09762
H           4.46024         4.45980        -0.03999

