%chk=[C]1CdC2CC3dC2CdCNdNCqdCC1rNdC3.chk
%NProcShared=20
# opt freq b3lyp/6-31g(2df,p)

Title Card Required 

0  1
C           1.72417         1.13942        -0.30500
C           2.76094         0.67876        -1.01385
C           2.92668         1.57676        -2.01371
C           4.40450         1.22820        -1.81287
C           3.84890         2.77763        -2.36514
C           2.68157         3.40372        -2.41678
C           3.07893         5.17109        -3.39575
C           4.37770         5.96263        -3.75493
N           5.71362         5.76576        -3.20648
N           6.35224         4.85553        -2.40806
C           5.88622         3.44217        -1.46913
C           5.00910         2.71905        -0.29783
C           3.28061         1.38423         0.38200
N           5.83149         2.79716        -2.72507
C           4.79297         3.46956        -2.95090
H           3.56380        -0.34634        -0.43975
H           5.05802         0.30108        -2.00921
H           4.99678         0.81054        -0.56427
H           2.40394         6.13829        -3.78440
H           4.57362         7.03490        -4.41157
H           6.13449         2.13314        -0.68881
H           2.88937         0.99569         1.42203
H           2.68135         0.12153         0.63636
H           4.51431         4.45415        -2.56073

