%chk=[C]dNCCdC1CdCCdCNdCSNON1.chk
%NProcShared=20
# opt freq b3lyp/6-31g(2df,p)

Title Card Required 

0  1
C           1.01671         0.06862        -0.06285
N           2.30389         0.04230        -0.02216
C           3.19036         0.82654        -1.21972
C           5.18163         1.03960        -1.51375
C           6.48226         1.85755        -2.57858
C           6.95479         0.96522        -1.36843
C           8.00171         1.27188        -1.91388
C           9.29109         1.26185        -1.88997
C          10.19396         1.71789        -2.66917
N          11.54170         1.65589        -2.51143
C          12.25702         2.16026        -3.48870
S          13.98373         2.11402        -3.23478
N          12.69197         3.18474        -3.96444
O          10.40813         3.06986        -4.07290
N           8.28483         2.67010        -3.59233
H           2.73530         1.81675        -1.10134
H           2.73557         0.32098        -2.08058
H           4.96927         0.20477        -0.26973
H           7.17583         0.35826        -0.52872
H           7.88741         1.58691        -2.76742
H           9.64245         0.77164        -1.12606
H           9.65554         2.04983        -3.51986
H          11.71688         2.85406        -4.89653
H          13.95759         3.71144        -4.49690
H           7.06452         2.63274        -3.96484

