%chk=[C]dCqCCrNOC1dCCdCOCdC1.chk
%NProcShared=20
# opt freq b3lyp/6-31g(2df,p)

Title Card Required 

0  1
C           1.03277         0.01191         0.31746
C           2.34955         0.04323         0.08644
C           3.03457         0.51797        -1.17607
C           2.10054         0.93069        -2.31155
N           3.09353        -0.50537         1.10339
O           4.45556        -0.22952         1.19405
C           5.01825        -0.74979         2.35902
C           4.61893        -1.89715         2.93705
C           5.11721        -2.50104         4.14380
C           6.10680        -2.08603         4.94589
O           6.92935        -1.00221         4.86963
C           6.90821        -0.06885         3.87737
C           6.11817         0.06840         2.80402
H           3.68964        -0.28232        -1.54422
H           3.68456         1.37026        -0.93701
H           1.46048         0.09616        -2.61721
H           2.67621         1.24796        -3.18703
H           1.46081         1.76787        -2.01198
H           2.57128        -0.49216         1.97797
H           3.82286        -2.47049         2.46606
H           4.60125        -3.41540         4.43469
H           6.37018        -2.64680         5.83640
H           7.70001         0.64677         4.07082
H           6.33151         0.91990         2.15858

