%chk=[N]dCSc1sc2nc1NdC2.chk
%NProcShared=20
# opt freq b3lyp/6-31g(2df,p)

Title Card Required 

0  2
N           1.58768         0.11201        -0.17806
C           2.83024        -0.08710        -0.12295
S           3.81004         0.49304        -1.47166
C           5.46765         0.71569        -0.92844
S           6.02784         2.24086        -0.12692
C           7.41387         1.16429         0.43159
N           6.81644        -0.01932         0.51753
C           6.65233        -0.07174        -0.84466
N           7.92922         0.32792        -1.51730
C           8.41913         1.12327        -0.58180
H           3.17885        -0.69425         0.72870
H           9.35015         1.69085        -0.53560

