%chk=[N]n1cccccc2cccc-2c2occc21.chk
%NProcShared=20
# opt freq b3lyp/6-31g(2df,p)

Title Card Required 

0  1
N           4.58979        -0.99672        -0.70293
N           5.31231        -0.73653         0.54750
C           4.39436         0.01822         1.28922
C           4.64771         1.28205         1.59906
C           5.12882         1.22191         2.96857
C           6.40798         1.14520         3.01770
C           7.30700         0.95303         4.09858
C           8.55463         0.71973         3.78382
C           9.61344         1.07521         4.70744
C          10.75395         0.93747         4.03132
C          10.41051         0.48764         2.63085
C           9.04716         0.27847         2.44691
C           8.19903        -0.06886         1.11573
O           8.53689         0.84127         0.04849
C           7.91977         0.42518        -1.08158
C           7.38761        -0.83089        -0.88374
C           6.85338        -0.60041         0.43929
H           3.36917        -0.30381         1.57435
H           5.40190         1.66341         0.88466
H           4.48710         0.97053         3.81225
H           6.92062         1.32194         2.07565
H           6.96105         1.26736         5.06729
H           9.46288         1.43783         5.71705
H          11.72671         1.14158         4.48490
H          11.28771         0.42808         1.98936
H           7.67642         1.20675        -1.78354
H           8.08830        -1.64819        -1.06876

