%chk=[N]N1[N]C1dCN[O].chk
%NProcShared=20
# opt freq b3lyp/6-31g(2df,p)

Title Card Required 

0  1
N           1.14238         0.00234         0.06531
N           2.45514         0.05974         0.06531
N           3.63562        -0.66411         0.06531
C           3.57524         0.71603         0.06531
C           4.20135         1.88376         0.06531
N           3.63731         3.13400         0.06531
O           4.36152         4.31139         0.06531
H           5.28594         1.90233         0.06531
H           2.62393         3.16944         0.06531

