%chk=C.Cd[SH]CqdOrCd[SH]CCCCqCrC.chk
%NProcShared=20
# opt freq b3lyp/6-31g(2df,p)

Title Card Required 

0  1
C           0.62588         0.94222         0.87646
C           1.30615        -0.99832        -0.72795
S           3.12275        -0.47483        -0.44248
C           3.48792         1.33376         0.12445
O           2.64332         2.23767         0.24141
C           4.90019         1.76564         0.42283
S           5.28977         3.49580         0.84399
C           7.10173         3.34297         0.90611
C           7.66206         4.70351         1.28577
C           9.18576         4.72990         1.30633
C           9.70883         6.11955         1.70416
C           9.21782         6.52514         3.09563
C          11.23410         6.12390         1.67835
H           1.61439         0.71917         1.26800
H           0.10725         0.02113         1.12706
H           0.67035         1.16876        -0.20418
H           0.27126         1.84039         1.34766
H           0.98205        -2.02893        -0.44071
H           0.44306        -0.41621        -1.14121
H           3.43763        -0.26787        -1.69135
H           5.67573         1.00135         0.32188
H           4.99706         3.58250         2.12838
H           7.45953         3.04509        -0.08234
H           7.39368         2.58699         1.64294
H           7.26587         4.96045         2.27345
H           7.30364         5.47249         0.58902
H           9.56845         4.46318         0.31245
H           9.56214         3.97414         2.00676
H           9.34698         6.85718         0.97535
H           9.53915         5.79398         3.84516
H           8.12740         6.59648         3.14028
H           9.60387         7.50816         3.37709
H          11.63669         5.39793         2.39283
H          11.62138         7.11304         1.94217
H          11.60918         5.86616         0.68277

