%chk=c1ccc2cc3cc-2cccc-3nc1.chk
%NProcShared=20
# opt freq b3lyp/6-31g(2df,p)

Title Card Required 

0  1
C           2.71834         0.30078        -0.15376
C           3.09604        -0.47326         1.02474
C           3.57747         0.15209         2.13577
C           4.97053         0.67554         2.12288
C           4.97700         1.62478         1.12606
C           6.20658         1.58959         0.50181
C           6.76103         0.90363         1.41239
C           6.54946         0.32638         2.70053
C           7.98436         0.03271         2.49680
C           8.78714         0.25487         0.96463
C           8.14463         0.21437        -0.35919
C           6.32167         0.58851        -0.62899
N           5.22977         0.04552        -1.27403
C           3.65432         0.34847        -1.18301
H           1.60488         0.46820        -0.16082
H           3.58020        -1.32582         0.54447
H           2.97174         1.06242         2.32517
H           4.26601         2.00029         0.41504
H           6.73470        -0.19104         1.07828
H           8.81638        -0.20513         3.20271
H           9.22701         1.24489         1.28862
H           8.73975         0.85774        -1.02197
H           3.03639         0.18750        -2.10485

