%chk=C1dCCSCd[SH]CdCSCdNSCd1.chk
%NProcShared=20
# opt freq b3lyp/6-31g(2df,p)

Title Card Required 

0  1
C           3.70672         1.53770        -2.21101
C           2.77471         0.80878        -1.21894
C           4.02042         0.55027        -0.87949
S           5.36924        -0.04770        -0.06104
C           6.23900         0.83328        -1.19731
S           7.92177         0.71868        -1.14803
C           7.87437         1.71618        -2.49687
C           9.11569         1.90222        -2.74481
S           9.47114         2.62857        -4.02014
C           9.95271         3.60385        -5.11351
N           8.51598         3.67308        -5.16057
S           6.25693         3.20360        -4.40402
C           4.70350         2.35072        -3.37718
H           2.77070        -0.02857        -0.05205
H           3.59345         1.67512        -0.35515
H           3.59255        -0.29264        -1.77695
H           5.79678         1.44975        -1.95154
H           8.02402        -0.16937        -2.09930
H           6.98969         1.85775        -3.09401
H          10.05778         1.70158        -2.38582
H          11.28982         3.20030        -4.58112
H           3.53239         2.42793        -3.49405

