%chk=C1dCNdNNdNNdNCNdNNdC1.chk
%NProcShared=20
# opt freq b3lyp/6-31g(2df,p)

Title Card Required 

0  1
C           2.68676        -0.26786        -0.22232
C           3.94214        -0.66913        -0.43960
N           3.27630        -1.79983        -1.05185
N           4.33873        -2.22786        -1.28362
N           4.83060        -3.21228        -1.81666
N           5.99797        -2.93105        -1.66438
N           6.55843        -3.98022        -2.23249
N           7.67048        -3.71985        -2.09150
C           8.88599        -4.21206        -2.35803
N           9.01700        -2.71791        -1.54898
N           7.89020        -1.66839        -0.98068
N           6.19285        -0.79409        -0.50727
C           4.62420        -0.43011        -0.31018
H           1.59626        -0.68973        -0.45076
H           4.48774         0.79934         0.35554
H           8.96827        -4.37401        -3.48389
H           8.96827        -5.24340        -1.87830
H           3.32223         0.59738         0.24619

