%chk=C1dCONdc2ccccc2dCC2dCC2dC1.chk
%NProcShared=20
# opt freq b3lyp/6-31g(2df,p)

Title Card Required 

0  1
C           1.39750         0.51850        -0.59849
C           2.71729         0.62323        -0.82417
O           3.43140        -0.40546        -1.43445
N           4.66768        -0.64694        -0.73954
C           5.10743        -1.87137        -0.91792
C           6.60927        -2.10504        -0.90662
C           7.17319        -3.07949        -1.64620
C           6.39345        -4.15200        -2.21210
C           5.06486        -4.20347        -1.99760
C           4.32053        -3.09345        -1.33033
C           2.98755        -3.14535        -1.07018
C           2.10345        -2.39682        -0.21663
C           0.78879        -2.21568        -0.17382
C           1.50685        -1.40043         0.75700
C           1.26624        -0.05502         0.71623
H           0.54831         0.09259        -1.14851
H           3.29695         1.05122        -0.01283
H           7.22299        -1.35495        -0.42828
H           8.25327        -3.13047        -1.79566
H           6.94132        -4.96128        -2.70683
H           4.55424        -5.12766        -2.26680
H           2.47854        -3.96003        -1.59802
H           0.02917        -2.31273        -0.88808
H           0.49498         0.67153         1.05817

