%chk=C1dCC2dCCdC3CdC3CCdCC2dC1.chk
%NProcShared=20
# opt freq b3lyp/6-31g(2df,p)

Title Card Required 

0  1
C           0.40687        -0.93215        -0.00100
C           1.14261         0.17033         0.00169
C           0.16325         1.16347         0.00299
C           0.48804         2.40117        -0.01057
C           1.64634         3.11153        -0.02795
C           1.34168         4.37934        -0.02380
C           1.70336         5.61793         0.00263
C           0.36040         5.42846        -0.03590
C          -1.14530         4.80765        -0.09088
C          -2.28921         3.49912         0.00204
C          -2.37713         2.06460         0.02189
C          -1.24361         0.84905         0.00586
C          -1.06862        -0.52405         0.00089
H           0.92068        -1.88295         0.00048
H           2.20061         0.38182         0.00371
H          -0.38941         2.93114         0.00356
H           2.60924         2.66969        -0.02393
H           2.69832         6.01362         0.03710
H          -0.97350         4.49268         0.95288
H          -0.94748         4.41220        -1.10587
H          -3.19582         4.14781         0.04284
H          -3.38476         1.61955         0.04819
H          -1.72946        -1.37875         0.00009

