%chk=C1dCCdC2CCdCNdc3cc2sc3dNCdC1.chk
%NProcShared=20
# opt freq b3lyp/6-31g(2df,p)

Title Card Required 

0  1
C           2.33558        -0.98152         0.56980
C           3.66107        -0.37904         0.38421
C           4.99712        -1.40871         1.35861
C           6.44995        -2.26241         1.94252
C           5.98203        -1.91504         0.73581
C           7.19910        -1.43619         0.21076
C           7.98800        -2.43988        -0.02109
N           9.17684        -2.35825         0.48270
C           8.90915        -3.47695         1.19640
C          10.00161        -3.28584         1.99547
C           8.37061        -3.02724         2.36185
S           8.83365        -5.15769         2.49034
C           7.32853        -4.53699         1.77499
N           5.73480        -4.40729         1.85739
C           4.20194        -3.66550         1.14073
C           3.22085        -2.54252         0.21640
H           0.88644        -0.89516         0.33931
H           3.39506         0.62388        -0.26949
H           3.88291        -1.88998         1.92641
H           5.58834        -2.69725        -0.12819
H           5.75668        -2.19736         2.27744
H           7.38619        -0.42893         0.27019
H           7.41030        -3.41092         0.25356
H          11.17356        -2.97117         1.27953
H           4.95630        -4.23709         0.52551
H           2.19343        -1.59243        -0.16747

