%chk=C1dCCdC2CdCNdCSCSCdC2CdC1.chk
%NProcShared=20
# opt freq b3lyp/6-31g(2df,p)

Title Card Required 

0  1
C          -0.25020         1.51566        -0.00783
C          -1.42615         0.93763        -0.02482
C          -1.65157        -0.41246        -0.01295
C          -0.91996        -1.49295        -0.01974
C          -1.16620        -2.67921         0.50737
C          -2.42784        -2.94229         0.08746
N          -2.97524        -4.06315         0.04273
C          -4.00383        -4.80365         0.01213
S          -3.60404        -7.11177         0.01551
C          -4.73991        -5.98817        -0.03779
S          -2.08408        -5.90632        -0.12070
C          -0.39072        -4.27650        -0.47079
C           0.06736        -2.42072        -0.52789
C           1.20586        -0.87388        -0.12699
C           0.98860         0.70718        -0.01923
H          -0.34684         2.60786         0.00245
H          -2.37331         1.41892        -0.01006
H          -2.65078        -0.75268         0.03608
H           0.19907        -3.28868         0.86203
H          -3.24530        -2.31852        -0.03526
H          -4.94534        -4.19230         0.00045
H          -5.83829        -6.40970        -0.83123
H          -5.82988        -6.40887         0.81794
H           0.84159        -4.61843        -0.14874
H           2.40622        -0.58010        -0.01884
H           1.76772         1.65053         0.01231

