%chk=C1dCCdC2CdCCdNNdNNdNNdC2CdC1.chk
%NProcShared=20
# opt freq b3lyp/6-31g(2df,p)

Title Card Required 

0  1
C          -0.28232         1.40334         0.00100
C          -1.46455         0.82340         0.00118
C          -1.69753        -0.57100         0.02196
C          -0.89820        -1.60396        -0.03122
C          -1.06169        -3.01000         0.07639
C          -2.44656        -3.06955        -0.00484
C          -2.99873        -4.27999         0.09715
N          -4.25927        -4.21060        -0.04632
N          -4.20327        -5.40755         0.18611
N          -4.88477        -6.29278        -0.03438
N          -3.61177        -7.04239        -0.08445
N          -2.10652        -6.37573        -0.35849
N          -0.87624        -4.70269        -0.32051
C          -0.30980        -2.93349        -0.16953
C           0.94933        -1.25094        -0.02598
C           0.88056         0.42197         0.00172
H          -0.32049         2.53373         0.00275
H          -2.37437         1.38738        -0.00961
H          -2.69363        -0.82827         0.00634
H           0.31969        -4.06769         0.09319
H          -3.24267        -2.37523        -0.00485
H          -2.30672        -5.09658         0.59058
H           2.13180        -0.88306        -0.00826
H           1.71704         1.43780         0.00239

