%chk=C1dCdC2CdCCCdCCdCCdCC2dCSCd1.chk
%NProcShared=20
# opt freq b3lyp/6-31g(2df,p)

Title Card Required 

0  1
C           2.12202        -0.16212        -0.08985
C           3.46378        -0.45904        -0.20260
C           5.22701        -0.30019        -0.37053
C           4.53572        -1.57929        -0.26185
C           5.72102        -1.87682        -0.26211
C           6.46685        -2.92500        -0.45228
C           7.79874        -2.66898        -0.34321
C           8.56253        -3.68632        -0.43511
C           9.77235        -3.36494         0.21233
C          10.71219        -4.08470        -0.42193
C          10.98591        -2.28457        -0.79961
C           9.46073        -1.16265        -0.86000
C           7.30288        -0.32330        -0.59922
C           5.95907         0.86831        -0.14590
S           3.63586         1.67348        -0.00518
C           1.40471         0.97930         0.06282
H           3.80180        -2.32775        -0.39157
H           6.35332        -1.26930         0.23766
H           6.24571        -3.16664        -1.42744
H           6.23912        -3.41790         0.42927
H           8.26171        -1.82803         0.09747
H           8.45898        -4.68403        -0.71097
H          10.23461        -1.99783         0.62210
H          10.92267        -5.14639        -0.80326
H          12.52003        -2.71988        -0.52491
H          10.54362        -2.30943        -0.89632
H           4.73305         1.47134         0.30488
H          -0.02672         0.40180        -0.01625

