%chk=C1dCNCdS2CqdC1rCdCCdCc1ncccc12.chk
%NProcShared=20
# opt freq b3lyp/6-31g(2df,p)

Title Card Required 

0  1
C          -1.68782        -0.44804         0.00408
C          -0.54039        -1.06344         0.16576
N           0.51568        -0.17659         0.47092
C           0.52593         1.62478         0.94226
S          -0.91881         3.49451         1.48127
C          -0.87461         2.01768        -0.11402
C          -1.77694         1.00917         0.05771
C          -0.71180         3.12405        -0.92202
C          -1.95733         3.55344        -1.01571
C          -1.98970         4.91455        -1.05749
C          -3.18130         5.36224        -0.69445
C          -2.37807         6.27819         0.04318
N          -2.37689         7.58084        -1.04775
C          -2.64896         8.83291        -0.78603
C          -3.45640         8.71958         0.23038
C          -3.15588         7.20536         1.17613
C          -2.35467         5.61133         1.37210
H          -2.58211        -1.05338        -0.06035
H          -0.48671        -2.20943         0.03584
H           1.34550        -0.83283         0.22224
H           1.68236         1.50156         0.49106
H          -2.79136         1.25314         0.05626
H           0.21939         3.74315        -0.69275
H          -2.75558         3.08274        -0.37460
H          -0.98336         5.40142        -0.67104
H          -4.05932         4.83875        -0.26598
H          -2.26562         9.73878        -1.26226
H          -4.24242         9.62851         0.11861
H          -4.17917         7.61914         1.68517

