%chk=C1dCdC2CdNCdCCdC2CdCCdCNdCCd1.chk
%NProcShared=20
# opt freq b3lyp/6-31g(2df,p)

Title Card Required 

0  1
C           1.34469        -1.72631        -0.03814
C           2.13592        -0.71616        -0.03995
C           3.44992        -0.16286        -0.04178
C           4.15361         1.25928        -0.04487
N           5.41613         1.67139        -0.04860
C           6.60611         0.96495        -0.05108
C           6.83280        -0.33234        -0.04782
C           5.81869        -1.25655        -0.04331
C           4.50111        -1.18940        -0.04033
C           4.11416        -2.51137        -0.03958
C           4.65086        -3.70872        -0.04366
C           3.56316        -4.55571        -0.05524
C           3.21474        -5.76487        -0.04779
N           1.83812        -5.87103        -0.03583
C           0.96595        -4.83372        -0.03059
C           0.67908        -2.99800        -0.03677
H           3.47811         2.13182        -0.04294
H           7.55280         1.50957        -0.05618
H           7.80677        -0.82335        -0.04923
H           6.29611        -2.22661        -0.04390
H           3.08156        -2.48189        -0.03817
H           5.65320        -4.03403        -0.04091
H           2.67525        -3.99025        -0.07799
H           4.01409        -6.52351        -0.03947
H          -0.00088        -5.36627        -0.02469
H          -0.40936        -2.90805        -0.04376

