%chk=C1dCCdCNdNCdc2ccccc2dCCdC1.chk
%NProcShared=20
# opt freq b3lyp/6-31g(2df,p)

Title Card Required 

0  1
C           1.86203         0.10816        -0.25582
C           2.77140        -0.34607         0.52385
C           2.96123        -1.66349        -0.13004
C           4.25122        -1.74047         0.08096
N           4.86603        -2.75833        -0.66506
N           6.08920        -2.88212        -0.59519
C           7.00310        -3.79148        -0.98670
C           8.32077        -3.59146        -0.94538
C           9.27858        -4.80444        -1.22888
C          10.59262        -4.89599        -0.93917
C          11.22149        -3.64295        -0.60382
C          10.46321        -2.42428        -0.54598
C           8.61429        -2.12685        -0.56845
C           7.41276        -0.81717        -0.40430
C           5.61763         0.00877        -0.57616
C           3.69758         0.43133        -0.66996
H           0.81932        -0.69302        -0.20877
H           3.28876         1.03381         0.84830
H           2.35406        -2.42685        -0.63696
H           4.58652        -0.55791         0.83377
H           6.65714        -4.74453        -1.22496
H           8.82778        -5.69369        -1.66751
H          11.19475        -5.82903        -1.02249
H          12.34621        -3.80702        -0.48330
H          11.19986        -1.61068        -0.58010
H           8.51169        -0.34516        -0.08884
H           6.15721        -1.10478        -0.30904
H           2.43124         1.18649        -0.24330

