%chk=C1dNNdCN2NdCNdCNdCCdCCdCCd12.chk
%NProcShared=20
# opt freq b3lyp/6-31g(2df,p)

Title Card Required 

0  1
C           1.96146         0.23875        -0.38032
N           0.30770         0.47224        -0.25090
N          -0.46321        -0.52953         0.02769
C           0.36163        -1.56011         0.14880
N           1.75576        -1.70197        -0.15699
N           1.87936        -1.97679        -1.43857
C           1.94483        -3.21701        -1.29856
N           2.76909        -3.64657        -2.18094
C           3.04586        -4.85044        -1.98558
N           3.85537        -5.17341        -2.97941
C           4.49103        -6.28410        -2.88804
C           5.91308        -5.89956        -3.05545
C           5.82903        -5.67465        -1.71587
C           5.28175        -3.89593        -1.12972
C           4.45684        -2.52820        -0.67922
C           2.98921        -1.11511        -0.14491
H          -0.07340        -2.54928         0.30057
H           1.41612        -3.71746        -0.48088
H           2.71037        -5.43274        -1.11080
H           4.12915        -7.12655        -2.19902
H           6.94772        -6.20314        -3.33444
H           5.87169        -7.00652        -1.66501
H           6.48236        -4.25984        -1.23529
H           5.02704        -1.56604        -0.52229

