%chk=C1dNC2dc3sccc3dNC23SC3dC1.chk
%NProcShared=20
# opt freq b3lyp/6-31g(2df,p)

Title Card Required 

0  1
C           1.61978        -0.10717        -0.08174
N           1.36910         0.96320        -0.72726
C           0.10715         1.46263        -0.60060
C          -0.09785         2.71858        -0.83002
S           0.91205         3.93961        -1.36801
C          -0.38896         5.01875        -1.07921
C          -1.51880         4.53661        -0.50499
C          -1.37459         3.05605        -0.21435
N          -1.94720         2.03346         0.39268
C          -1.00983         0.87001         0.11990
S          -1.74984        -0.55540        -0.46181
C          -0.60246        -0.38089         0.83692
C           0.64877        -0.90844         0.70476
H           2.67645        -0.41512        -0.06974
H          -0.18791         6.02673        -1.41223
H          -2.35874         5.19605        -0.34786
H           1.14630        -1.64100         1.32756

