%chk=C[C]1NCdCCdCCqSCt[SH]rdC1C.chk
%NProcShared=20
# opt freq b3lyp/6-31g(2df,p)

Title Card Required 

0  2
C           1.47923        -0.15394        -0.14454
C           3.15770        -0.00608        -0.85980
N           3.03833         1.26566        -1.15586
C           4.24047         1.81430        -1.17596
C           4.73266         2.21875        -2.32370
C           6.16362         2.16204        -2.32896
C           6.11137         1.28919        -3.31397
C           6.21954        -0.23371        -2.48018
S           7.82513         0.39876        -3.83340
C           9.45587         1.70805        -4.34596
S          11.11321         2.54695        -5.27275
C           4.74960        -0.65021        -1.37548
C           4.01383        -1.67797         0.04811
H           1.01274         0.88378        -0.07841
H           1.15198        -0.49074         0.87975
H           0.80404        -0.63148        -0.86111
H           2.43081         1.19492        -1.96995
H           4.96206         1.39064        -0.43123
H           4.12546         1.89904        -3.22739
H           6.78532         1.66791        -1.53204
H           5.89468         1.80497        -4.34396
H          12.23591         3.40309        -4.77581
H           4.00922        -2.78339         0.25386
H           2.81848        -1.76856         0.13322
H           3.95593        -1.21436         1.12340

