%chk=CC12CqdOrCSNdC1NdCSC2dO.chk
%NProcShared=20
# opt freq b3lyp/6-31g(2df,p)

Title Card Required 

0  1
C           1.07412         0.02937         0.07126
C           2.59926         0.17220         0.11888
C           3.20538         0.42260         1.46059
O           2.55293         0.69043         2.47878
C           4.69505         0.09910         1.44831
S           4.52555        -1.61394         1.98035
N           3.85034        -2.01370         0.44861
C           3.28700        -1.11143        -0.32477
N           3.65650        -1.25059        -1.62930
C           4.09996        -0.23680        -2.29493
S           4.00660         1.44848        -1.94133
C           2.91279         1.45054        -0.60053
O           2.52121         2.52525        -0.17331
H           0.71836        -0.92428         0.47168
H           0.70878         0.10310        -0.96404
H           0.57625         0.83328         0.62869
H           5.30958         0.96433         1.72100
H           5.14703        -0.08270         0.46233
H           4.63210        -0.43545        -3.23535

