%chk=Cc1cc2cqccccs1rdCCdCCdCCd2.chk
%NProcShared=20
# opt freq b3lyp/6-31g(2df,p)

Title Card Required 

0  1
C           0.94439        -0.01328         0.01848
C           2.62933         0.05791        -0.41399
C           3.71809         1.00044        -0.61017
C           5.52889         1.01376        -1.31004
C           5.53081         0.99297        -2.72270
C           4.84940         1.72772        -3.70947
C           3.57799         1.56531        -3.68271
C           2.34311         1.66498        -4.15557
C           1.51872         1.07951        -3.24868
S           2.21601        -0.59769        -2.23399
C           6.65227         0.43012        -3.16584
C           7.32853         1.16541        -4.14850
C           8.58886         0.91694        -3.70495
C           9.01746         2.22809        -3.60710
C           8.56613         2.09797        -2.18302
C           7.02237         1.35711        -1.06870
H           0.38886         0.36553        -0.85964
H           0.53089         0.53099         0.88106
H           0.55780        -1.07307         0.10946
H           2.95764         1.63341        -1.27317
H           5.22592         2.06331        -4.61222
H           3.46466         1.13456        -2.77271
H           2.34170         2.29312        -5.03600
H           0.55942         1.31227        -3.68371
H           7.37708        -0.09626        -2.44560
H           6.98427         2.07018        -4.78098
H           9.14941         0.29159        -2.67725
H           9.01175         2.30952        -4.87249
H           9.86293         1.79196        -2.43384
H           7.13035         0.33618        -0.40635

