%chk=CC1dCCqdOrCqCqOrdCdOrCdCCdCC1C.chk
%NProcShared=20
# opt freq b3lyp/6-31g(2df,p)

Title Card Required 

0  1
C           1.37800        -0.01449        -0.08596
C           3.39641        -0.08843         0.04990
C           3.36779        -0.32742         1.30248
C           4.71696        -0.54304         1.50740
O           5.48004        -1.23749         0.81429
C           5.15056        -0.61394         2.78175
C           4.98091        -2.08814         2.94998
O           6.01136        -3.03482         3.00867
C           3.76341        -2.43590         3.21065
O           2.61718        -2.54520         3.42976
C           6.36189         0.01327         2.30187
C           7.28669        -0.57062         3.14365
C           8.53958        -0.58470         1.85345
C           7.39797        -0.56273         0.54466
C           5.36721         0.12034        -0.41173
C           3.60075         0.31401        -1.56845
H           0.71958        -0.25100         0.88358
H           0.73057        -0.76214        -0.75774
H           0.73025         0.94231        -0.36728
H           2.58508        -0.48623         1.97681
H           5.03936         0.24416         3.32859
H           6.91199        -2.74237         2.73833
H           6.46913         0.61290         0.93228
H           7.43495        -1.01788         4.12830
H           9.79609        -0.43943         1.73016
H           8.24169        -0.58558         1.91622
H           5.03169         0.27336        -1.55319
H           2.12864         0.35792        -1.70938
H           2.99158        -0.23135        -2.73541
H           2.98706         1.32287        -2.37284

