%chk=CC1dC2CdCCdCCdCCdC2CdCCdCCdCCdCCCCdC1.chk
%NProcShared=20
# opt freq b3lyp/6-31g(2df,p)

Title Card Required 

0  1
C           0.20650         0.10260        -0.01032
C           0.19733         1.99031        -0.96228
C           2.53651         2.11250        -1.02367
C           4.42608         1.20640        -0.56690
C           5.90323         1.84247        -0.88751
C           7.11474         1.46321        -0.69632
C           6.64306         2.43015        -1.18366
C           8.60122         2.72238        -1.33123
C           9.14363         4.08948        -2.01184
C           7.14535         3.57679        -1.77941
C           4.82207         3.03895        -1.48301
C           2.76221         2.99111        -1.46673
C           1.09695         3.45544        -1.70062
C          -0.67879         3.63959        -1.79366
C          -1.56104         4.49595        -2.22554
C          -2.83886         4.64730        -2.30185
C          -3.54025         5.56530        -2.76471
C          -4.65390         5.26259        -2.61208
C          -5.78122         6.35138        -3.16107
C          -7.66477         6.21156        -3.09057
C          -6.10613         5.51815        -2.74096
C          -4.30389         3.84284        -1.84227
C          -2.28075         2.61396        -1.30135
H           0.58532         1.22899        -0.57827
H           0.73370        -0.01731         1.04337
H           0.73370        -0.81589        -0.54044
H           5.23618         0.23979        -0.07951
H           5.91884         3.40533        -1.67539
H           7.85749         1.04940        -0.48776
H           6.32259         4.26337        -2.10803
H           9.68694         2.32333        -1.13006
H           9.33664         5.12190        -2.54123
H           8.95342         3.90298        -1.92642
H           1.30689         2.79252        -1.36718
H           0.88960         4.25438        -2.10374
H          -1.67112         3.69233        -1.82041
H          -1.26971         5.28085        -2.62128
H          -3.26629         3.28164        -1.61325
H          -3.46925         6.38453        -3.17778
H          -5.67222         3.87150        -1.91067
H          -5.62637         7.37693        -3.67817
H          -8.14686         6.40859        -2.16499
H          -8.14686         5.58453        -3.79933
H          -6.98086         6.69736        -3.92416
H          -6.98086         7.17065        -2.98551
H          -5.88697         4.72266        -2.36910
H          -1.27333         1.49281        -0.71107

