%chk=CC1dCCdCCdC2CdC3CdCCdC2NdCCqdC3rCCdC1.chk
%NProcShared=20
# opt freq b3lyp/6-31g(2df,p)

Title Card Required 

0  1
C           2.47450        -0.10715        -0.21123
C           4.68479        -0.11794        -0.34044
C           3.67184         0.18461         0.90060
C           4.80999         0.31000         1.43079
C           5.27219         0.59099         2.53893
C           6.55997         0.39145         2.26491
C           7.45088         0.61576         3.07029
C           9.08485         0.93341         3.96185
C          10.13839         1.21543         4.63335
C           9.73265         1.56848         5.86351
C           8.49225         1.70201         6.29071
C           7.37141         1.47374         5.39987
C           7.78985         1.20364         4.04733
N           8.62115         0.84507         2.31229
C          10.00385         0.57316         1.91266
C          11.38313         0.46276         2.70531
C          11.40244         1.17400         3.87315
C          10.93136         0.40918         0.92204
C           8.88135         0.08331         0.14534
C           6.84511        -0.08025        -0.25965
H           1.35944         0.14194         0.78394
H           1.28601        -0.97445        -0.28846
H           1.28062         0.59262        -0.69842
H           2.72530         0.39578         1.77429
H           5.62359         0.15129         0.86853
H           4.73156         0.80992         3.35077
H           7.14179         0.27743         1.41165
H           9.74696         0.46772         3.44724
H          10.61025         1.71054         6.37015
H           8.44938         2.00037         7.30852
H           6.44280         1.62640         6.15374
H          10.15303        -0.64820         1.87942
H          12.18785         1.18028         4.60641
H          12.26497        -0.13537         1.60591
H          12.27812         1.10031         1.38259
H          10.23298        -0.15677        -0.28880
H           6.03129        -0.39242        -1.15177

