%chk=CC1dCCdCCdCCdCCdCNdCqOrC1dN.chk
%NProcShared=20
# opt freq b3lyp/6-31g(2df,p)

Title Card Required 

0  1
C           2.41485        -0.20022        -0.11795
C           4.83620        -0.55407        -0.52326
C           3.35945        -0.91393        -0.93547
C           4.78623        -1.02599        -1.06383
C           5.50484        -1.74721        -1.88994
C           7.00600        -1.98316        -2.16022
C           7.52165        -2.64077        -2.91346
C           8.57304        -2.42352        -2.66448
C           9.55832        -3.26341        -3.62660
C          10.87139        -2.67898        -2.95679
C          11.03463        -3.87854        -4.33117
N          11.30092        -2.96069        -3.27999
C           9.89123        -2.01292        -2.19460
O          12.03035        -2.99696        -3.32177
C           7.43436        -1.02990        -1.06834
N           6.32118         0.08620         0.21012
H           0.88844        -0.70224        -0.69299
H           0.97612         0.83582        -0.15057
H           0.97612        -0.37235         0.90420
H           2.73596        -1.46326        -1.56469
H           6.03542        -0.79168        -0.79547
H           4.90135        -2.23731        -2.45130
H           8.45992        -1.29036        -1.36670
H           7.04816        -3.08435        -3.42153
H           9.43591        -1.36021        -1.44649
H           9.24337        -3.88356        -4.33698
H          12.38473        -2.21090        -2.42104
H          11.58985        -4.52686        -5.07383
H          13.22308        -3.76271        -4.19848
H           4.93790         0.75744         0.97898

