%chk=CC1dNCC2dC1CdCNNdCNSNSCdCCdC2.chk
%NProcShared=20
# opt freq b3lyp/6-31g(2df,p)

Title Card Required 

0  1
C           2.57881         1.91776        -0.03490
C           4.30002         4.05944         0.01292
N           4.03603         2.15420        -0.03230
C           5.32805         1.56980        -0.03724
C           5.80115         4.09721        -0.01037
C           6.00645         6.46062         0.00448
C           7.14997         9.09977         0.01441
C           8.38714        11.34225         0.01456
N          10.10579        13.03789         0.02616
N          10.27313        12.19230         0.00050
C          10.45436        11.12977         0.01899
N           9.44317        10.05972        -0.01033
S           9.80029         8.64122         0.00093
N           8.28531         7.70307        -0.01681
S           8.68313         6.08461        -0.01398
C           7.38535         4.95108        -0.02665
C           7.56114         3.67770        -0.02785
C           5.73611         3.35449        -0.06776
C           6.10081         2.00763        -0.03916
H           1.60248         0.18403        -0.04773
H           1.17855         0.84810        -0.76044
H           1.17072         0.84530         0.65957
H           5.20115        -0.21065        -0.68410
H           5.19555        -0.21511         0.58770
H           8.04961        10.94447         0.01239
H           9.04574        13.28458         0.01556
H          11.84896        13.40925         0.02765
H          11.41835        11.14623         0.01905
H           8.56142         9.00868        -0.02653
H           7.68606         7.98785        -0.87002
H           7.18119         3.37006        -0.02954
H           8.39647         3.23762        -0.02162
H           4.98185         5.06067        -0.13485
H           6.96878         1.12987        -0.03498

