%chk=CC1dC2CdCCdCNdNCdC2CdN1.chk
%NProcShared=20
# opt freq b3lyp/6-31g(2df,p)

Title Card Required 

0  1
C           1.03752         0.44490        -0.01920
C           2.44742         0.08839        -0.08475
C           2.78870        -1.22723        -0.09329
C           2.26447        -2.18712         0.81545
C           1.04465        -2.61582         0.80853
C           1.00166        -4.06057         1.01680
C           0.60254        -4.46320        -0.16458
N           1.60696        -4.45737        -1.18527
N           2.80786        -3.87458        -1.37634
C           3.94980        -2.87912        -0.93654
C           4.02382        -1.47485        -0.68814
C           4.53240         0.07877        -0.35070
N           3.51693         0.91864        -0.17224
H           0.41750        -0.43795        -0.06115
H           0.73876         0.92613        -0.94874
H           0.74326         0.91976         0.90926
H           3.03843        -2.92867         1.09871
H           0.33792        -2.18838         0.06426
H           1.97885        -4.53973         1.19998
H          -0.45322        -4.09091        -0.33356
H           4.77299        -3.43683        -0.47846
H           5.55243         0.49747        -0.22327

