%chk=CC1dCNdNCdCCqNNCCdNrdCCdCNCdCCdNCdCCdC1.chk
%NProcShared=20
# opt freq b3lyp/6-31g(2df,p)

Title Card Required 

0  1
C           3.78690         0.96479         0.44806
C           6.92012         1.92920         0.87277
C           4.62344         1.72955         0.74698
N           5.14922         0.95053         0.48064
N           5.25819         2.43299         1.08383
C           7.13159         3.10064         1.36841
C           7.65308         3.74658         1.64866
C           8.70163         3.66732         1.61147
N           9.84029         1.98493         0.88060
N           9.10486         0.81006         0.37102
C           9.95557        -0.09049        -0.00912
C           9.20473        -1.28575        -0.52373
N           9.82878        -2.32911        -0.97527
C           9.57099         4.66862         2.04431
C          11.19150         4.48026         1.97354
C          11.28312         5.63031         2.52978
N          11.96536         5.38194         2.08863
C          13.46849         6.55247         2.85953
C          14.93597         5.38467         2.45316
C          15.78003         7.73673         3.38463
N          16.90180         7.48127         3.27600
C          16.76908         8.29535         3.61824
C          15.46631         6.47745         2.84586
C          12.79511         4.64356         2.13761
C          10.18001         3.34536         1.52425
H           1.49371         0.96538         0.44820
H           1.73184        -0.14701         0.56537
H           1.73197         0.28802        -0.44189
H           2.75763         2.00026         0.90021
H           7.91547         2.26896         1.01127
H           6.89353         4.10934         1.80611
H          10.72528         2.05561         0.91909
H           8.41867         1.21747        -0.36791
H          10.56348        -0.37187         0.82602
H          10.56375         0.32371        -0.78462
H           8.14143        -1.28248        -0.52268
H          10.83389        -2.32420        -0.97263
H           9.08110         5.24022         2.29467
H          11.72260         3.50765         1.54595
H          11.29251         6.32511         2.77137
H          13.78632         4.37924         1.86128
H          13.47510         7.49319         3.26597
H          15.99512         5.43664         2.38494
H          15.50341         8.67563         3.77829
H          17.67927         9.73014         4.23339
H          17.82865         7.18785         3.14057
H          14.52650         6.34367         2.70679
H           8.75876         2.03097         0.94272

