%chk=CC1dCNqCrCdCCqdCCdNrCdNC2dC1CdN2.chk
%NProcShared=20
# opt freq b3lyp/6-31g(2df,p)

Title Card Required 

0  1
C           3.87430        -1.17007         0.09887
C           6.21330        -2.03940         0.22801
C           4.34381        -1.94618         0.19494
N           5.51213        -1.42321         0.12515
C           5.59612         0.09071        -0.05981
C           5.56638        -3.37059         0.35492
C           7.37931        -2.72185         0.24762
C           6.87369        -3.84197         0.42711
C           6.81203        -5.17703         0.59647
C           5.47690        -5.32820         0.61151
N           4.66570        -6.23111         0.72140
C           8.76712        -2.45432         0.25892
N           8.88102        -4.28944         0.48211
C          10.17913        -4.30471         0.48612
C           8.34797        -3.79462         0.43386
C          10.64951        -4.52892         0.51052
N          11.10180        -5.95682         0.68762
H           2.54923        -0.12364        -0.03281
H           2.28910        -0.85228         0.62272
H           2.28962        -0.99024        -0.49145
H           2.86830        -2.38630         0.24615
H           4.77761         0.85596        -0.15433
H           6.12653         0.04190        -0.96338
H           6.12650         0.26338         0.82848
H           4.41843        -3.42509         0.37485
H           7.60249        -1.48351         0.13249
H           7.48878        -5.92221         0.68093
H           4.67545        -4.71443         0.53460
H           5.26385        -6.99210         0.81549
H           9.90121        -2.69674         0.28467
H          12.34897        -4.88704         0.55544

