%chk=CC1dNN2NdCCdCCdCCdNC2dCOC1dO.chk
%NProcShared=20
# opt freq b3lyp/6-31g(2df,p)

Title Card Required 

0  1
C           1.10127        -0.07165         0.06304
C           2.60355        -0.28393         0.02009
N           3.05588        -1.49918        -0.16921
N           4.34829        -1.83022        -0.59556
N           3.96048        -2.86438        -1.31362
C           3.41434        -3.81110        -0.66304
C           3.66640        -4.98239        -1.44918
C           3.20627        -6.09602        -0.93163
C           4.10595        -7.23991        -1.37543
C           4.39384        -7.31310        -0.08987
C           5.57313        -5.77230        -0.24421
N           5.91186        -4.28618        -0.54640
C           5.78945        -2.36459        -0.92395
C           5.53424        -0.81937        -1.25557
O           4.53281         0.54169        -0.70731
C           3.50148         0.87343         0.15741
O           3.40379         1.70362         1.05640
H           0.66175        -1.04970        -0.16265
H           0.74612         0.62308        -0.71077
H           0.73387         0.25732         1.03827
H           2.82213        -3.67965         0.25417
H           4.60083        -5.11488        -2.08722
H           2.70079        -6.02813         0.11522
H           5.13189        -7.30182        -1.92181
H           3.38081        -7.85291         0.24296
H           6.30851        -6.92602        -0.32457
H           5.94958         0.21011        -1.77222

