%chk=CC1dCOCqCNOrdCNdCC2dCC2dC1.chk
%NProcShared=20
# opt freq b3lyp/6-31g(2df,p)

Title Card Required 

0  1
C           1.58903        -0.05405         0.00901
C           3.66624        -0.26433        -0.25419
C           3.00114        -1.00253        -1.02579
O           4.05111        -1.38602        -1.50491
C           5.21486        -1.87195        -2.10543
C           4.45222        -2.64239        -3.03626
N           3.03103        -2.40827        -2.83494
O           2.24304        -3.13883        -3.64505
C           7.03166        -1.16600        -1.27456
N           8.31280        -1.34273        -1.49781
C           8.59453        -2.15889        -2.45475
C           7.62500        -2.97679        -3.41356
C           8.69766        -2.65728        -3.04076
C           6.71396        -2.10746        -2.42384
C           5.56465        -0.89293        -0.98510
H           0.70260        -0.67056        -0.71027
H           0.75391         0.95450        -0.14147
H           0.75456        -0.36714         0.98548
H           2.18749        -1.39876        -1.42261
H           4.74382        -3.58380        -2.67378
H           4.75083        -2.14777        -3.90454
H           2.83212        -1.36950        -2.90199
H           2.57654        -4.00005        -3.35489
H           7.35157        -0.52374        -0.53312
H           9.56446        -1.72477        -1.94568
H          10.22042        -2.83814        -3.25230
H           4.99999        -0.04565         0.01435

