%chk=CC1dC2CdCCdCCdCCCqdC1rCqCrq[C]OrC2.chk
%NProcShared=20
# opt freq b3lyp/6-31g(2df,p)

Title Card Required 

0  1
C           0.99754         0.00161         0.03916
C           2.37805         0.02946         0.02873
C           2.69604        -1.17351         0.09188
C           2.18279        -2.36559        -0.00291
C           2.77877        -3.45528         0.13678
C           2.14260        -4.65466         0.13899
C           3.41436        -4.82931         0.58166
C           3.58699        -5.68215        -0.36293
C           4.60751        -4.14633        -0.59744
C           5.23135        -1.80119        -0.33291
C           4.49313         0.13773         0.02828
C           3.28109         1.00387         0.05856
C           5.74145        -1.19305         0.33602
C           6.04875        -0.12000         1.55415
C           6.41751        -0.21016        -1.18736
O           7.06123        -1.28408        -1.30889
C           3.82105        -1.68440         0.44282
H           0.61363        -1.01546         0.04850
H           0.67473         0.46508        -0.85239
H           0.67947         0.46011         0.94542
H           1.23441        -2.57978         0.00272
H           4.18624        -3.12744         0.40128
H           1.19794        -5.14725        -0.04786
H           4.76305        -5.59311         0.47499
H           2.38350        -6.77123        -0.04657
H           4.08759        -5.68542        -0.65296
H           4.85867        -0.27306        -0.72808
H           4.95801        -0.13458         0.08751
H           2.83044         2.06510         0.04058
H           6.53475         0.87870         1.51226
H           6.74258        -0.88499         1.62612
H           5.21140        -0.08571         2.24627
H           7.52930        -1.24066        -2.10433
H           4.69992        -2.00286         1.42492
H           4.08173        -2.15794        -1.13339

