%chk=CC1dCqOCOrCdCCdCNdNCC1CO.chk
%NProcShared=20
# opt freq b3lyp/6-31g(2df,p)

Title Card Required 

0  1
C           1.78980         0.05059        -0.11137
C           3.79038         0.03101         0.31022
C           3.26987        -0.02637         1.53110
O           2.47668        -0.07295         2.53465
C           1.10280        -0.08461         2.57815
O           0.63661        -0.14249         3.89051
C           4.45849        -0.05399         1.96596
C           5.22797        -0.14546         2.92460
C           6.53250        -0.03118         2.76533
C           7.19301        -0.10647         3.86113
N           8.41551         0.23141         4.02936
N           8.82054        -0.32111         3.00535
C           7.99915        -0.22537         1.15627
C           5.87348        -0.12119         0.07077
C           4.24651         0.11478        -1.24875
O           3.87832         0.18722        -2.95792
H           0.93727         0.02474         0.69374
H           1.05567        -0.80438        -0.52965
H           1.06065         0.97654        -0.42242
H           0.74499        -0.99034         2.06072
H           0.74844         0.87435         2.17081
H           0.96365        -0.99099         4.21967
H           5.22752         0.13547         1.43816
H           4.74002        -0.16733         3.76692
H           6.68159         0.30897         1.78789
H           6.83836        -0.28296         4.79747
H           9.09799        -0.88528         1.99278
H           9.13180         0.44120         1.95183
H           5.86633         0.12620        -1.04403
H           3.11331         0.87886        -1.41533
H           3.10201        -0.59969        -1.51572
H           3.65703         1.03688        -3.45114

