%chk=CC1dNNCdCCdNCNqCrN2CCN[SH]12.chk
%NProcShared=20
# opt freq b3lyp/6-31g(2df,p)

Title Card Required 

0  1
C           3.44601        -2.19190         0.14696
C           5.37891        -3.48130         0.29956
N           4.58051        -2.07387         0.46817
N           5.00308        -1.05359         1.10753
C           5.62068        -1.97951         1.89599
C           6.83065        -2.06060         1.33895
C           7.44412        -3.06433         2.03950
N           8.70317        -2.98936         1.91680
C           9.31403        -4.13700         2.41293
N          10.67176        -4.05160         1.84043
C          11.23484        -3.13029         2.80460
N          10.01855        -5.16145         1.85644
C          10.87477        -5.55195         3.59245
C          10.95241        -6.92631         3.44142
N           9.34713        -6.54831         2.12808
S           7.73763        -4.97495         0.95388
H           2.63787        -0.72472        -0.02385
H           2.21701        -1.28616         0.78319
H           2.05686        -1.55384        -0.44495
H           5.15459        -0.37617         0.28215
H           4.78706        -3.04705         1.97118
H           7.21905        -1.35631         0.64162
H           6.72358        -4.02698         2.28804
H           8.48593        -5.27588         2.35303
H           9.08709        -4.54677         3.42060
H          10.73990        -2.24176         2.43471
H          12.31130        -2.97148         2.71182
H          10.98007        -3.26955         3.85777
H          10.10108        -5.65679         4.30772
H          11.67179        -5.07418         4.52309
H          11.00531        -7.59984         4.73252
H          12.39195        -7.18330         3.99465
H           9.89244        -7.71047         2.40260
H           9.17282        -5.59346         0.38284

