%chk=CC1dCCdCCdCdCdC1CCdNCCdS.chk
%NProcShared=20
# opt freq b3lyp/6-31g(2df,p)

Title Card Required 

0  1
C           1.24359        -0.04321        -0.02050
C           2.87915        -0.28315        -0.00117
C           3.15407        -1.51813         0.09889
C           4.49277        -1.61010         0.11101
C           5.01132        -2.85309         0.20719
C           6.38168        -1.69447         0.11284
C           6.97303        -2.65281         0.18888
C           6.10596        -1.29698         0.07296
C           4.50581         0.06842        -0.03739
C           3.46555         1.80808        -0.16994
C           3.79360         3.54040        -0.30957
N           3.12108         4.70648        -0.40356
C           4.06519         5.97070        -0.50555
C           3.33822         7.31859        -0.61429
S           4.16829         8.78612        -0.73268
H           0.73921        -1.05014         0.06083
H           0.77572         0.36548        -0.93967
H           0.77573         0.50754         0.82144
H           2.53977        -2.32677         0.16386
H           5.71509        -0.13743        -0.00142
H           4.83910        -3.90352         0.29081
H           7.77264        -1.43219         0.09191
H           2.45881         2.15442         0.61092
H           2.45881         2.02492        -0.99588
H           4.83913         3.60290        -0.31453
H           4.70729         5.89912        -1.39441
H           4.70729         6.04253         0.38329
H           2.24473         7.32706        -0.61497

