%chk=CC1qCrNdCCdCNdC2NdCCdCN2C1dN.chk
%NProcShared=20
# opt freq b3lyp/6-31g(2df,p)

Title Card Required 

0  1
C           1.73849        -0.15498         0.43932
C           3.57097         0.13026         0.96891
C           3.50396         0.57271        -0.88236
N           3.12249         1.38163         1.47354
C           4.31608         1.76080         1.17596
C           4.64818         2.48682         2.32293
C           5.93501         2.61572         2.20110
N           6.67863         3.00334         3.23165
C           7.44204         1.98552         3.03711
N           8.70469         2.14686         2.38012
C           9.77174         1.88390         3.05409
C           9.53344         1.74408         4.46265
C           8.04925         1.15537         4.62074
N           6.79204         0.65331         3.24285
C           5.24630        -0.06400         2.40991
N           5.15817        -1.38833         2.07421
H           1.22757         0.85572         0.16574
H           1.00178        -0.57735         1.11951
H           1.39662        -0.59381        -0.59451
H           2.92093         1.54013        -1.05015
H           2.90846        -0.02443        -1.66292
H           4.45904         0.70359        -1.35979
H           5.13982         1.14671         0.54629
H           4.11688         2.28592         3.25636
H           6.48322         1.86423         1.48818
H          10.84713         1.79435         2.70828
H          10.43115         2.59335         4.87949
H           8.01529         2.33173         5.20975
H           4.15684        -1.74869         1.85029

