%chk=CCC1dC[C]d[C][N]CdCCdNNNC1N.chk
%NProcShared=20
# opt freq b3lyp/6-31g(2df,p)

Title Card Required 

0  2
C           1.08230        -0.06935         0.24715
C           2.89272        -0.37884         0.91284
C           3.96004        -1.24057         2.54798
C           4.66648        -0.81164         1.57892
C           5.51342        -1.45538         2.25092
C           6.49902        -1.72527         2.75721
N           7.00540        -2.58462         3.60467
C           8.24396        -2.70389         3.89138
C           8.58563        -3.77040         4.65498
C          10.01584        -3.84715         5.16201
N           9.88998        -4.25378         6.41153
N           9.13761        -2.71463         6.34016
N           6.92667        -2.33479         5.63359
C           5.15185        -1.90483         4.36233
N           3.18180        -1.52112         3.58363
H           0.71085         0.52694        -0.74461
H           0.59425         0.52871         0.99943
H           0.60333        -1.02476         0.05824
H           2.97474         0.87605         0.36344
H           2.97955        -0.59893        -0.50387
H           5.01814        -0.41585         0.70307
H           8.95196        -2.02085         3.55864
H           7.71427        -4.22959         5.60058
H          10.80467        -2.98286         4.88639
H          10.64568        -3.09256         6.42652
H           7.89431        -3.09732         6.47457
H           3.83665        -2.47573         4.22702
H           2.36114        -1.31706         2.43167
H           1.92104        -1.13031         3.28569

