%chk=CCC1dCC2dCCdCCdNCdCCdCC2dCCdC1.chk
%NProcShared=20
# opt freq b3lyp/6-31g(2df,p)

Title Card Required 

0  1
C           0.93581        -0.00643         0.07457
C           2.44043         0.00210         0.06112
C           2.93390         1.22941         0.68934
C           3.74183         1.05222         1.70665
C           4.29714         1.93259         2.56181
C           5.11655         1.83052         3.71039
C           5.40993         0.19001         3.80349
C           6.10714        -0.37642         4.73758
C           6.49469        -1.66946         4.42713
N           6.17763        -1.58849         5.67901
C           7.09689        -2.54211         5.98604
C           7.87174        -1.83401         6.84547
C           7.73041         0.01398         6.04910
C           6.69222         1.45376         4.94501
C           5.21212         2.25856         3.62280
C           4.10335         3.47978         2.61094
C           2.89687         3.54711         1.02818
C           2.47749         2.48164         0.24741
H           0.56541        -0.91464        -0.38862
H           0.54173         0.84152        -0.48823
H           0.56040         0.06092         1.09761
H           2.81997        -0.05629        -0.95420
H           2.80995        -0.86409         0.61955
H           4.06094         0.13752         2.00657
H           5.47866         3.39069         4.33328
H           4.99556        -0.43490         3.11565
H           6.21754         0.38993         6.11229
H           5.89278        -2.45922         4.05075
H           7.26228        -3.61037         5.69774
H           8.81988        -2.50449         7.86251
H           8.25335        -1.30625         6.68047
H           6.34600         2.47003         5.35407
H           3.60625         4.76063         2.15029
H           2.18742         4.44199         0.22154
H           1.81729         2.36717        -0.67375

