%chk=CCC1dCCdNC2dCC2dC2CdCCdC1C2.chk
%NProcShared=20
# opt freq b3lyp/6-31g(2df,p)

Title Card Required 

0  1
C           0.87823        -0.16047         0.38380
C           2.30684        -0.42799         0.84173
C           3.08202        -1.25351         2.20915
C           4.35023        -0.96144         1.66233
C           5.44995        -0.99149         2.57096
N           6.63997        -1.06483         2.94376
C           6.69632        -1.07056         4.35732
C           7.46849        -1.32475         5.30077
C           6.07255        -1.81211         5.42124
C           4.75253        -1.41198         5.68538
C           3.86776        -0.20308         5.10650
C           2.45806        -0.19336         4.79845
C           1.69540        -1.48981         4.57772
C           2.66125        -2.08113         3.84687
C           3.50102        -2.28756         5.58819
H           0.82827         0.19496        -0.67604
H           0.42776         0.65012         0.95776
H           0.33113        -1.09150         0.41251
H           2.78287         0.58426         0.66070
H           2.73063        -0.95029        -0.05387
H           4.58165        -0.32055         0.79488
H           4.87292        -0.59704         3.30148
H           8.51754        -1.59701         5.06816
H           4.25470        -0.97578         4.46937
H           1.99826         0.20990         3.85556
H           0.61537        -1.33142         4.50437
H           3.35292        -3.18633         6.20114
H           2.99729        -1.62304         6.45747

