%chk=CCC1dCCdCCdCCqCrdCdCNCdC1.chk
%NProcShared=20
# opt freq b3lyp/6-31g(2df,p)

Title Card Required 

0  1
C           1.58149        -0.51261         0.06329
C           3.44555        -1.16260         0.07032
C           5.05713        -2.42554         0.27477
C           5.13867        -1.45612         1.17718
C           5.24155        -1.89391         2.49352
C           6.52903        -2.10953         2.73514
C           6.79761        -3.32249         3.46766
C           8.04276        -3.68390         3.72701
C           8.36376        -4.97464         4.31108
C           7.49853        -6.13967         4.52861
C           9.59449        -5.24958         4.40310
C          10.44387        -5.40720         3.48991
N           9.68757        -5.13154         2.02538
C           7.98470        -4.59637         1.35480
C           6.52485        -3.73994         0.83064
H           1.31537         0.48108        -0.53464
H           1.06729        -0.12387         1.00572
H           0.85671        -1.14940        -0.46416
H           3.59775        -0.06207         0.56068
H           3.51586        -0.76929        -0.97261
H           5.38699        -0.52237         0.65826
H           4.51160        -2.66560         2.80146
H           7.17642        -1.79742         1.86293
H           6.06963        -4.14487         3.44769
H           8.77713        -3.10787         3.11733
H           6.48589        -5.92508         4.24612
H           7.62188        -6.24727         5.60250
H           7.80096        -7.09608         4.05506
H          11.51576        -5.36134         4.06961
H          10.41412        -5.71807         1.50816
H           8.95169        -3.96425         1.37258
H           5.65324        -4.33007         1.21909

