%chk=CCC1dCC2dCCdCCdC1CdC1NdC21.chk
%NProcShared=20
# opt freq b3lyp/6-31g(2df,p)

Title Card Required 

0  1
C           1.10770        -0.41728        -0.01199
C           2.61484        -1.01426        -0.08134
C           3.66823        -2.53636        -0.33062
C           4.73968        -1.70414        -0.64689
C           5.23704        -1.97338        -1.92900
C           6.54084        -2.25346        -1.76939
C           6.91925        -3.41976        -2.52427
C           6.89782        -4.48249        -1.76940
C           5.39011        -4.94089        -1.48006
C           4.05329        -4.15462        -1.11715
C           2.95880        -4.35453        -2.15188
C           3.07280        -3.44152        -3.13554
N           4.18476        -3.37271        -3.91407
C           4.23444        -2.50173        -3.00260
H           1.04398         0.59973         0.48279
H           0.46590        -1.02845         0.61239
H           0.65524        -0.18096        -0.98830
H           2.96911        -0.67118         0.91549
H           3.04605        -0.14974        -0.68133
H           4.84883        -0.69180        -0.32479
H           7.13028        -2.00190        -0.85441
H           6.16794        -3.60073        -3.27853
H           7.99658        -4.56166        -1.58791
H           5.58783        -5.85322        -2.17302
H           2.21994        -5.14662        -2.36653

