%chk=CCC1dCCdC2SCdCCdCCdCCdS12.chk
%NProcShared=20
# opt freq b3lyp/6-31g(2df,p)

Title Card Required 

0  1
C           1.21730        -0.17814         0.05030
C           2.79225        -0.48806         0.08482
C           3.72380        -1.56883         1.17379
C           3.92715        -1.01913         2.35344
C           3.67052        -2.01754         3.36152
C           2.97559        -3.06727         2.89491
S           1.85594        -4.17236         3.45592
C           2.89682        -4.63743         4.66691
C           2.72671        -5.88658         5.14935
C           3.37674        -6.14864         6.38902
C           3.93863        -7.36080         6.36733
C           5.31887        -7.02008         5.81481
C           5.25582        -6.45026         4.51929
C           4.98541        -5.21690         2.94647
S           3.89921        -3.75868         1.57198
H           0.92622         0.59306        -0.71107
H           0.81874         0.24827         0.98318
H           0.65616        -1.06799        -0.22309
H           3.13255         0.55827         0.32575
H           3.11361        -0.56274        -0.96353
H           3.84489         0.06474         2.55227
H           4.11411        -1.89934         4.32900
H           3.76424        -4.04975         4.97492
H           2.68604        -6.66395         4.36307
H           4.07530        -5.33339         6.68968
H           3.42642        -8.25553         6.00782
H           5.52717        -6.88289         6.95700
H           5.26050        -7.47196         4.07227
H           5.12960        -5.95492         2.13042

