%chk=CCC1dCCdC2[CH]CqdCCdC2rO1.chk
%NProcShared=20
# opt freq b3lyp/6-31g(2df,p)

Title Card Required 

0  2
C           1.13972         0.16685        -0.14995
C           2.75384         0.39973        -0.51379
C           3.94226         1.59140        -1.32646
C           5.12552         1.43270        -0.58845
C           5.73294         2.67506        -0.44129
C           6.88384         3.19523        -1.01060
C           6.20578         4.11436        -1.86446
C           5.98323         3.25849        -2.95758
C           7.23744         3.85936        -3.56287
C           8.59167         3.49466        -2.52138
C           8.13854         2.66118        -1.53647
O           4.41756         2.59019        -2.72447
H           0.91369        -0.75951         0.46977
H           0.56796        -0.01898        -1.05636
H           0.67726         0.94714         0.47180
H           3.06654        -0.63729        -0.75120
H           3.05684         0.36106         0.59368
H           5.24705         0.54488        -0.02766
H           4.90528         3.42520        -0.60818
H           6.12310         5.18575        -1.78621
H           7.59266         4.98363        -3.45917
H           9.63682         3.87425        -2.70276
H           8.57030         1.86966        -0.94516

