%chk=CCCCCSCqdSrCdCNdCCdO.chk
%NProcShared=20
# opt freq b3lyp/6-31g(2df,p)

Title Card Required 

0  1
C           1.09606        -0.02177         0.00758
C           2.61682        -0.00953         0.01090
C           3.16063         1.37147         0.38496
C           4.69782         1.38828         0.38951
C           5.24639         2.77301         0.76459
S           7.08836         2.80647         0.77365
C           7.51740         4.48469         1.22822
S           6.36484         5.67358         1.55025
C           9.02000         4.70091         1.28678
C           9.59058         5.88082         1.60638
N          10.95481         6.07718         1.65957
C          11.34295         7.27247         1.98332
C          12.80903         7.59217         2.06992
O          13.16735         8.72212         2.37598
H           0.72226        -1.01476        -0.26138
H           0.70152         0.69809        -0.71663
H           0.70152         0.23417         0.99611
H           2.98100        -0.29855        -0.98190
H           2.98100        -0.76010         0.72211
H           2.78163         1.65373         1.37521
H           2.78163         2.11492        -0.32746
H           5.05496         1.09876        -0.60613
H           5.05497         0.63584         1.10293
H           4.87133         3.03790         1.75920
H           4.87133         3.50367         0.03963
H           9.66000         3.85267         1.05703
H           8.95652         6.73547         1.83787
H          10.67979         8.12581         2.21446
H          13.49397         6.76282         1.84528

