%chk=CCCCdCC1dCCdCCdCSCdCqCrCdC1CN.chk
%NProcShared=20
# opt freq b3lyp/6-31g(2df,p)

Title Card Required 

0  1
C           0.95331         0.02253        -0.07876
C           2.46392         0.02664        -0.08945
C           3.01692         0.54351        -1.43535
C           4.76053         0.59304        -1.56313
C           6.14100         1.00713        -2.63536
C           8.27798         1.14096        -3.04866
C           7.31998         1.47464        -3.86552
C           8.66538         1.49220        -3.89414
C           9.28136         1.91483        -4.97911
C          10.67017         2.09426        -5.01768
C          11.37005         2.45248        -6.04073
S          13.89876         2.06660        -5.12772
C          12.48715         2.21004        -6.58228
C          14.02782         2.35747        -6.36376
C          16.18648         2.51564        -6.55701
C          12.24141         1.84287        -5.00907
C          10.56975         1.29324        -3.61759
C           8.81744         0.64841        -1.84209
N           8.08123        -0.05480         0.09138
H           0.58055        -0.34283         0.87285
H           0.57854        -0.61889        -0.87018
H           0.57854         1.02878        -0.23756
H           2.82378        -0.98424         0.08342
H           2.82378         0.66208         0.71551
H           2.61435         1.54458        -1.57949
H           2.61435        -0.10408        -2.21247
H           5.01270         0.21012        -0.56676
H           4.81368         1.27876        -3.35221
H           6.78315         1.76846        -4.62371
H           9.65128         1.07318        -2.74708
H           8.91525         2.22294        -5.81201
H          11.89822         1.48570        -3.85001
H          11.11677         2.63532        -6.90861
H          13.14746         2.97565        -7.88985
H          16.03898         2.15374        -5.62982
H          17.07169         3.35918        -6.30563
H          17.07187         1.71201        -6.93852
H          13.58531         2.64515        -6.42128
H           7.39313        -0.07729        -1.25177
H           7.40322         0.87086        -0.89317
H           8.27720        -1.10598         0.53045
H           7.28293        -0.50232         1.36683

