%chk=CCCC1dCC2C[SH]dCdCC2dCCdC1.chk
%NProcShared=20
# opt freq b3lyp/6-31g(2df,p)

Title Card Required 

0  1
C           0.99840         0.00450        -0.08824
C           2.50711         0.01457        -0.11919
C           3.02639        -0.98333        -1.15388
C           4.52648        -0.95446        -1.11139
C           5.05676        -1.64538        -0.07966
C           6.47424        -1.93353         0.27551
C           6.28012        -3.37504         0.70339
S           6.59510        -5.02055         0.02727
C           7.83944        -4.25243        -0.69648
C           8.49241        -3.09333        -0.80471
C           7.60664        -1.83746        -0.75714
C           7.72268        -0.79366        -1.60217
C           6.62134         0.02663        -2.11198
C           5.28393        -0.11552        -1.98407
H           0.63391         0.73896         0.63369
H           0.62661        -0.98337         0.20231
H           0.60132         0.25058        -1.07621
H           2.88324        -0.23139         0.88506
H           2.87776         1.01846        -0.35438
H           2.64883        -0.77726        -2.16012
H           2.65282        -1.99017        -0.89930
H           4.33925        -2.20616         0.52478
H           6.71393        -1.36769         1.18224
H           7.19046        -3.41777         1.30622
H           6.02262        -3.38144        -0.39689
H           5.30994        -4.86029        -0.37985
H           9.35775        -2.98016        -0.14158
H           8.65952        -0.60781        -2.12819
H           6.92988         0.75510        -2.86198
H           4.65307         0.50660        -2.62131

