%chk=CCCC1dNNc2ccccqc2rNdCNdC1.chk
%NProcShared=20
# opt freq b3lyp/6-31g(2df,p)

Title Card Required 

0  1
C           1.17464        -0.00512        -0.18642
C           2.75544        -0.10785        -0.27736
C           3.44732         0.51928        -1.59720
C           5.10598         0.78745        -2.09421
N           5.43794         2.02761        -1.80198
N           6.75753         2.26676        -1.66182
C           7.34710         2.91128        -2.76488
C           6.82858         3.99894        -3.38556
C           7.40903         4.46574        -4.56987
C           8.17872         3.53829        -5.29361
C           8.43387         2.33672        -4.68314
C           8.45650         2.30550        -3.31155
N           8.64154         1.05752        -5.22358
C           8.20380        -0.00354        -4.56734
N           7.38084        -0.35497        -3.45561
C           6.36669        -0.24196        -2.58525
H           0.77852        -0.59124         0.66427
H           0.67465        -0.39950        -1.07756
H           0.80328         1.01670        -0.01807
H           2.98688        -1.17229        -0.19471
H           3.11133         0.37624         0.64541
H           3.13888         1.57186        -1.41249
H           2.83538         0.23707        -2.45805
H           7.32939         1.49103        -1.34647
H           5.98654         4.50960        -2.91769
H           7.18372         5.45484        -4.91833
H           8.50211         3.80751        -6.30545
H           8.96828         1.49668        -2.83553
H           8.86479        -0.85046        -4.88566
H           6.51731        -0.99279        -1.78389

