%chk=CCCC1dCCdC2CdC2CqdOrCdC1N.chk
%NProcShared=20
# opt freq b3lyp/6-31g(2df,p)

Title Card Required 

0  1
C           0.75554         0.06860        -0.08048
C           2.23522         0.08664        -0.01454
C           2.72202         0.65494         1.34358
C           4.34257         0.10682         1.59438
C           5.80212         0.49567         2.05904
C           7.25245         0.81984         1.81837
C           7.72694         1.52181         2.88345
C           8.34276         2.25940         3.86280
C           7.01257         1.88572         4.12033
C           5.16437         2.19847         4.32382
O           3.68073         1.76876         4.35567
C           4.36636         1.83190         3.02500
C           4.72117         1.69957         1.56041
N           4.88971         0.78436        -0.00686
H           0.47313        -0.39155        -1.02877
H           0.41694         1.10230        -0.01826
H           0.41527        -0.52321         0.76886
H           2.59867         0.67331        -0.87793
H           2.59494        -0.94158        -0.11297
H           2.30320         0.12537         2.18140
H           2.40863         1.75273         1.36394
H           5.97030         1.26623         2.72353
H           7.78940         0.59940         0.92093
H           9.34818         1.74655         3.75229
H           4.83194         2.71474         4.32878
H           5.78138         0.12930        -0.09582
H           4.26696        -0.00504        -0.34104

