%chk=CCCC1Cdc2ccc3ccccc3c2dCCdC1N.chk
%NProcShared=20
# opt freq b3lyp/6-31g(2df,p)

Title Card Required 

0  1
C           0.76498         0.03588         0.05629
C           2.26635        -0.01610         0.03470
C           2.90638         0.43198         1.34162
C           4.45474         0.38024         1.27820
C           4.92731         1.25547         2.40840
C           5.65981         1.05383         3.51703
C           5.84101         2.24012         4.36830
C           6.56633         2.20131         5.49269
C           7.21552         0.95843         5.92887
C           7.97110         0.96643         7.10711
C           8.60644        -0.19240         7.55486
C           8.49891        -1.36856         6.83349
C           7.75142        -1.38630         5.66698
C           7.09097        -0.23578         5.18881
C           6.26625        -0.22011         3.93178
C           6.16461        -1.39094         3.28118
C           5.56428        -1.78565         2.06630
C           4.90915        -1.06804         1.14979
N           4.68194        -1.72318        -0.04656
H           0.39624        -0.31455        -0.91231
H           0.39912         1.04456         0.24631
H           0.39276        -0.64534         0.82761
H           2.67562         0.57079        -0.79640
H           2.46900        -1.06928        -0.14589
H           2.55152        -0.20273         2.16639
H           2.55747         1.44900         1.57089
H           4.81220         0.89270         0.37388
H           4.55383         2.27414         2.26278
H           5.37325         3.17951         4.08053
H           6.68534         3.09459         6.09694
H           8.06978         1.87872         7.68756
H           9.18823        -0.18006         8.46909
H           8.98573        -2.28252         7.15953
H           7.71663        -2.34356         5.16132
H           6.67375        -2.26932         3.64909
H           5.77048        -2.82853         1.82588
H           4.56678        -2.73212        -0.01784
H           4.21678        -1.22756        -0.79531

