%chk=CCCdNCqdCCqdOrCCNrSNdS.chk
%NProcShared=20
# opt freq b3lyp/6-31g(2df,p)

Title Card Required 

0  1
C           1.23214         0.02538        -0.14312
C           2.77829         0.15511        -0.28776
C           3.43597        -0.73703         0.70193
N           4.63669        -1.09863         0.99919
C           4.80035        -2.04105         2.07019
C           3.86334        -2.72620         2.81469
C           2.32555        -2.76049         2.81651
O           1.60111        -2.16377         2.04210
C           1.51041        -3.59611         3.77162
C           0.02850        -3.23012         3.39997
N          -0.99440        -3.95291         4.13637
S           6.56204        -2.34397         2.40788
N           6.62942        -3.51026         3.65385
S           8.07827        -3.79941         3.96024
H           0.71824         0.68456        -0.84745
H           0.87747         0.28668         0.86621
H           0.87603        -0.99847        -0.33035
H           3.06144         1.18225        -0.05918
H           3.06987        -0.14235        -1.29202
H           2.71922        -1.12315         1.31673
H           4.24663        -3.41493         3.56933
H           1.71666        -3.32238         4.80601
H           1.69529        -4.65303         3.57124
H          -0.15669        -3.43454         2.32927
H          -0.14852        -2.14854         3.52694
H          -0.88181        -4.93444         3.89563
H          -1.88988        -3.66303         3.74125

