%chk=CCCNC1dCCdCCdCCdC1NCCNC.chk
%NProcShared=20
# opt freq b3lyp/6-31g(2df,p)

Title Card Required 

0  1
C           1.00431        -0.10505         0.03220
C           2.52346        -0.06758         0.07048
C           2.97229         1.07719         0.97549
N           4.41430         1.12235         1.09001
C           5.20137         2.06641         1.78043
C           4.75633         2.30210         3.02212
C           5.13767         2.92162         4.23829
C           6.21339         3.56945         4.67022
C           7.38249         4.04008         4.01837
C           7.81253         4.00304         2.75926
C           7.37933         3.40776         1.52675
C           6.40442         2.59773         1.05303
N           6.55612         2.26829        -0.32684
C           5.70183         1.40185        -1.10882
C           6.08827         1.18252        -2.55387
N           5.08687         0.27055        -3.13599
C           5.41610        -0.01362        -4.51466
H           0.64825        -0.92979        -0.59001
H           0.60727         0.83168        -0.37295
H           0.59921        -0.23601         1.04139
H           2.91516         0.05357        -0.94582
H           2.90687        -1.02395         0.44661
H           2.50810         0.93626         1.95421
H           2.62084         2.02912         0.56060
H           4.91398         0.24610         0.96615
H           3.81471         1.80135         3.24582
H           4.38456         2.73818         5.00857
H           6.19354         3.81836         5.73202
H           8.03293         4.57148         4.71684
H           8.74631         4.55596         2.61357
H           8.11078         3.71401         0.77077
H           7.39356         2.60641        -0.78522
H           4.68986         1.82072        -1.11063
H           5.74082         0.39724        -0.67926
H           7.07932         0.71805        -2.58624
H           6.11661         2.13543        -3.08927
H           4.15718         0.68924        -3.07131
H           6.38666        -0.51408        -4.57122
H           5.44227         0.90893        -5.09965
H           4.66513        -0.68102        -4.94487

