%chk=CCCqdOrCn1cccccc2ncnc-2cqdOro1.chk
%NProcShared=20
# opt freq b3lyp/6-31g(2df,p)

Title Card Required 

0  1
C           1.00787        -0.02654         0.00345
C           2.55167         0.22234         0.01779
C           2.82075         1.90952         0.11541
O           1.81353         2.61583         0.15670
C           4.25452         2.59761         0.12646
N           5.00952         4.26314         0.31895
C           6.27614         3.80091         0.23321
C           7.10583         4.78889         0.28075
C           8.42636         4.96109         0.27019
C           8.53023         6.24784         0.35036
C           9.58157         7.07400         0.39772
C           9.10435         8.28845         0.47539
N          10.02666         9.27852         0.53372
C           9.30334        10.34100         0.59883
N           7.82796        10.09008         0.58647
C           7.53447         8.70575         0.50348
C           5.80676         7.67704         0.41047
O           4.94511         8.59958         0.39224
O           4.85473         6.14687         0.29641
H           0.69332        -1.08202        -0.05574
H           0.55785         0.48391        -0.85455
H           0.55762         0.38498         0.91284
H           2.93202        -0.27237        -0.89507
H           2.93228        -0.37212         0.86864
H           4.77323         2.09671        -0.73808
H           4.75703         1.99057         0.94132
H           6.61866         2.78736         0.16000
H           6.52689         5.64387         0.37988
H           9.16660         4.22480         0.22648
H           7.62952         6.79927         0.39914
H          10.58071         6.71415         0.37234
H           9.97073        11.27490         0.65083

