%chk=CCdCCqCrCCqdSrCC[SH]dNNC.chk
%NProcShared=20
# opt freq b3lyp/6-31g(2df,p)

Title Card Required 

0  1
C           0.93358        -0.03944         0.09734
C           2.41744        -0.06555         0.11465
C           3.14762        -0.46798         1.18134
C           4.65766        -0.38524         1.17804
C           5.06648         1.08625         0.98794
C           5.31492        -0.98247         2.44676
C           6.86002        -1.10450         2.40975
S           7.72465        -0.98067         0.94974
C           7.56544        -1.51778         3.71606
C           9.09322        -1.44216         3.64027
S           9.92568        -1.96104         5.17027
N          11.33626        -1.84904         4.63793
N          12.23722        -2.45095         5.57003
C          13.64642        -2.19916         5.36919
H           0.58378         0.36265        -0.85988
H           0.55151         0.61013         0.89056
H           0.52770        -1.04702         0.21343
H           2.92349         0.29694        -0.77578
H           2.64280        -0.83115         2.06882
H           4.98614        -0.98540         0.31889
H           4.66351         1.70936         1.79171
H           4.70975         1.47503         0.02874
H           6.14507         1.24281         0.98360
H           4.92580        -1.99652         2.62106
H           5.02127        -0.39441         3.32792
H           7.24023        -2.54145         3.94409
H           7.19166        -0.88421         4.53191
H           9.39757        -0.41144         3.42384
H           9.45472        -2.09788         2.83955
H           9.74670        -3.26171         5.09370
H          11.89796        -2.54937         6.52120
H          13.89178        -1.78677         4.38252
H          14.17106        -3.15691         5.45349
H          14.07827        -1.52851         6.12289

