%chk=CCNdCC1dCCdC2C3dCCdCCdCC3dC12.chk
%NProcShared=20
# opt freq b3lyp/6-31g(2df,p)

Title Card Required 

0  1
C           1.07746         0.07693         0.03461
C           2.61345         0.05464         0.05139
N           3.07909        -1.32755         0.24152
C           4.34793        -1.61641         0.32878
C           4.83103        -3.06532         0.34458
C           4.05628        -3.76740        -0.52010
C           4.40409        -5.13765        -0.48541
C           5.33762        -5.18336         0.41365
C           6.01345        -6.03282         1.28372
C           5.86073        -6.98973         2.20432
C           6.45593        -8.30121         1.81435
C           7.77140        -8.34622         2.13986
C           8.63883        -7.15853         1.75475
C           8.35139        -5.77486         1.78983
C           7.01024        -5.03676         1.24427
C           6.13473        -3.96989         0.93681
H           0.69356         1.09849        -0.08788
H           0.66658        -0.32177         0.96835
H           0.67437        -0.52642        -0.78732
H           2.95745         0.70082         0.86383
H           2.96332         0.46760        -0.90336
H           5.11351        -0.82961         0.25792
H           3.23405        -3.40388        -1.12019
H           3.86374        -5.94858        -0.94783
H           6.48455        -6.77388         3.11203
H           6.20434        -8.41867         0.74045
H           8.13601        -8.72373         3.10091
H           8.86139        -7.72731         0.82404
H           8.45694        -5.27762         2.76313

