%chk=CCNdCdC1CdCCdCdCCdCqCrC1.chk
%NProcShared=20
# opt freq b3lyp/6-31g(2df,p)

Title Card Required 

0  1
C           1.23264         0.13304        -0.00165
C           2.87977         0.08519         0.04464
N           4.06833         1.04743        -0.74668
C           5.32105         0.94479        -0.79190
C           6.77933         0.92369        -1.34649
C           6.52468         1.09220        -2.75913
C           7.64274         1.52022        -3.28262
C           8.20004         1.08386        -4.47387
C           9.43811         1.34047        -4.65163
C          10.67736         1.43240        -4.40241
C          10.91966         0.65756        -3.25886
C          10.57212         0.52734        -1.97558
C          12.43818        -0.06477        -2.18678
C           8.73961         0.99535        -1.02735
H           0.80330        -0.64298         0.69911
H           0.76101        -0.14373        -0.95686
H           0.75796         1.05532         0.36323
H           3.06982        -0.94624        -0.24857
H           3.05542         0.25673         1.10595
H           5.67005         0.65835        -3.27572
H           8.26741         2.15495        -2.67549
H           7.62337         0.52719        -5.15648
H          11.33869         2.18478        -4.81821
H          11.23082        -0.35450        -3.67999
H          13.06943         0.29904        -3.28766
H          12.66863        -1.10354        -2.72523
H          13.48916         0.24175        -1.76246
H           8.68294         2.12872        -0.84778
H           8.60850         0.75450         0.03651

