%chk=CCOC1dCCdC2CdC2CdCdCqNrCdC1.chk
%NProcShared=20
# opt freq b3lyp/6-31g(2df,p)

Title Card Required 

0  1
C           0.97262         0.08896         0.02106
C           2.49994         0.09986        -0.09010
O           2.85685        -0.43103        -1.39687
C           3.67763        -1.55018        -1.63435
C           4.88666        -1.28705        -2.19734
C           6.25286        -1.91603        -2.11940
C           6.74220        -2.80056        -2.93913
C           7.75102        -3.47598        -3.52450
C           6.56028        -3.85817        -4.01403
C           5.19583        -3.90204        -4.15104
C           4.25762        -4.71421        -4.46717
C           2.97020        -4.64552        -4.49890
N           2.60691        -4.88244        -5.88702
C           2.40789        -3.42003        -3.38220
C           2.83954        -2.81643        -2.13383
H           0.59268         0.77773         0.78727
H           0.60799        -0.91387         0.26540
H           0.52788         0.36667        -0.93972
H           2.95313        -0.36024         0.80244
H           2.81362         1.15587        -0.08560
H           4.68058        -1.47754        -3.25327
H           6.99573        -1.39562        -1.50796
H           8.78194        -3.55507        -3.60522
H           4.68031        -3.23856        -3.51435
H           3.47479        -5.19655        -6.38259
H           2.04970        -5.71772        -6.11147
H           1.42026        -3.88532        -3.19288
H           3.31553        -3.37066        -1.30214

