%chk=CCOc1cccc[nH]cccncnc1CNCCdS.chk
%NProcShared=20
# opt freq b3lyp/6-31g(2df,p)

Title Card Required 

0  1
C           1.15312         0.00944        -0.02307
C           3.02057         0.17339        -0.14826
O           4.48117         1.28227        -0.90085
C           6.19376         2.16923        -1.40139
C           5.00446         2.58566        -1.93943
C           6.29177         2.64497        -2.14378
C           6.72575         3.80456        -2.85317
C           7.98491         4.11392        -2.94374
N           8.40288         5.07382        -3.70367
C           9.65516         5.35701        -3.66368
C           9.82737         6.30730        -4.57708
C          11.14871         5.92101        -4.30165
N          11.99869         6.45214        -4.89987
C          11.28004         4.85521        -3.89040
N           9.75148         3.54231        -3.17966
C           8.17880         2.50801        -1.84782
C           6.89106         0.85980        -0.56475
N           6.47870        -0.85422         0.60330
C           5.61497        -2.32896         1.66036
C           6.71955        -3.36796         2.46615
S           6.45375        -4.72103         3.47321
H           0.74856        -0.86119         0.62048
H           0.71722        -0.16695        -0.99970
H           0.71801         0.89093         0.43264
H           3.03009        -0.94336        -0.41832
H           3.03054         0.10967         1.00010
H           4.19047         3.08356        -2.28527
H           7.37778         1.45503        -1.69278
H           6.01520         4.38051        -3.25617
H           9.13983         3.37052        -2.09122
H           7.84199         5.65883        -4.20580
H          10.77433         4.38736        -2.75414
H          10.02207         7.06813        -5.27585
H          12.71251         5.21762        -3.81956
H          12.57339         5.98489        -4.60683
H           5.62340        -0.08814        -0.63423
H           5.61563         0.56432         0.25700
H           6.67912        -0.74642         1.62027
H           4.96886        -3.24938         1.27729
H           4.97461        -2.19757         2.69633
H           7.74036        -3.10817         2.28057

