%chk=CCqCrC1dNCdCCdNCdCCdCSC1.chk
%NProcShared=20
# opt freq b3lyp/6-31g(2df,p)

Title Card Required 

0  1
C           1.13823         0.13173         0.14865
C           2.81841         0.49433         0.70900
C           3.14229         0.97428        -1.02332
C           3.77705         1.64640         2.08718
N           4.58593         0.80022         1.57884
C           5.38482         0.81335         2.54565
C           6.58507         1.22087         2.58818
C           7.01197         1.51066         3.85277
N           8.26150         1.47962         4.05155
C           8.33159         1.40383         5.42805
C           9.44284         1.89916         6.03202
C           9.06677         3.04384         7.25132
C           8.92834         3.65694         6.02869
S           6.62733         3.52781         5.13991
C           4.73586         2.43147         3.98189
H           0.86400        -0.33172        -0.90621
H           0.62802         1.07988         0.07689
H           0.65702        -0.59907         0.79688
H           3.10722        -0.69739         0.28020
H           2.71203         1.96267        -1.11435
H           2.68939         0.43941        -1.95597
H           4.20556         0.90973        -1.23458
H           4.90426         0.65287         3.46246
H           7.20097         0.93177         1.84590
H           6.25625         1.66091         4.66950
H           7.29139         1.41051         6.02082
H          10.39584         2.13039         5.19520
H           9.71766         3.40942         8.26870
H          10.42656         3.32958         6.27419
H           3.68973         2.86231         3.86776
H           3.95726         1.53769         4.54967

