%chk=CCqCrd[SH]C1dCCdCNdNSCd[SH]1.chk
%NProcShared=20
# opt freq b3lyp/6-31g(2df,p)

Title Card Required 

0  1
C           1.26724        -0.12694        -0.11199
C           2.84634        -0.02174        -0.00240
C           3.38250         0.64326         1.19716
S           4.12955        -0.09543        -1.34784
C           6.12509        -0.62551        -1.05263
C           6.25828        -1.63119        -1.93034
C           7.50296        -2.20125        -1.90506
C           8.21811        -2.42986        -3.05143
N           9.43324        -2.76303        -2.69423
N          10.49982        -2.40719        -3.19749
S          11.17760        -1.77845        -1.78181
C          10.03139        -0.27548        -1.77943
S           7.98853         0.48187        -1.38173
H           0.78623         0.39566         0.74514
H           0.85485        -1.14364        -0.04143
H           0.83260         0.36462        -0.99001
H           2.58851         1.04530         1.82943
H           3.97728         1.47283         0.80871
H           3.98353        -0.08961         1.72419
H           3.49341        -0.32723        -2.48214
H           5.48578        -1.95294        -2.60660
H           8.06578        -2.12550        -0.96377
H           7.83495        -2.29400        -4.03907
H          10.53488         0.10166        -2.70710
H           8.01051         0.90258        -0.13941

