%chk=CCqCrC1dCCdCCdCCdCCdCCdC1.chk
%NProcShared=20
# opt freq b3lyp/6-31g(2df,p)

Title Card Required 

0  1
C           1.22352         0.12877         0.25970
C           3.15079         0.89036         1.06030
C           3.04160         0.49077        -1.07723
C           4.36354         2.33243         2.62841
C           4.48724         1.19654         1.40763
C           5.12990         2.04412         2.32148
C           6.37852         2.14333         2.42894
C           7.10033         2.85758         3.20337
C           8.22661         3.04134         3.39318
C           8.40306         3.82429         4.28269
C           9.79833         4.05694         4.50666
C           8.91585         4.69060         5.20564
C           9.87068         5.22544         5.74156
C           7.65879         4.78332         5.24087
C           5.88466         3.76779         4.16177
H           0.65293        -0.72420        -0.66791
H           0.58687         0.94997        -0.16277
H           0.58775        -0.35046         1.04129
H           2.94088        -0.71764         0.48809
H           2.60656         1.37508        -1.54130
H           2.60085        -0.32270        -1.99192
H           4.06631         0.37008        -1.33037
H           5.05228         0.54538         0.70539
H           5.24581         2.93358         3.28066
H           6.89789         1.61020         1.85268
H           7.12447         3.78594         4.19527
H           8.89897         2.66679         2.99325
H           6.64083         4.44762         4.97554
H          10.74779         3.86356         4.28419
H           8.74184         6.00378         6.60246
H          11.59419         5.14021         5.66130
H           9.30891         5.48208         5.99891
H           4.25187         3.47451         3.86319

