%chk=CdC1CdCCdc2nncqdCrcc2CdC1.chk
%NProcShared=20
# opt freq b3lyp/6-31g(2df,p)

Title Card Required 

0  1
C           1.53685         0.37452         0.14735
C           2.94757         0.76414         0.19627
C           2.99563         1.49354        -1.06504
C           4.20057         1.32259        -1.72832
C           5.54267         1.72158        -1.55573
C           6.79257         2.03160        -0.97289
N           7.57775         1.08697        -0.43594
N           8.80967         1.27426        -0.29825
C           9.32456         2.49233        -0.54422
C          10.69258         2.53737        -0.63949
C           8.30551         3.58129        -0.55374
C           6.84213         3.34254        -0.37847
C           5.37889         2.95817         0.56524
C           4.32982         1.69107         0.84155
H           0.70601         0.98737        -0.23830
H           1.01408        -0.65383         0.12060
H           2.42243         2.39444        -0.82341
H           4.67818         0.45568        -1.31663
H           4.99392         2.63526        -1.43676
H          11.22845         1.59704        -0.45417
H          11.30910         3.39914        -0.81704
H           8.84784         4.46711        -1.00462
H           5.11520         3.85916        -0.17717
H           4.66811         0.56887         0.66156

