%chk=CdC1CdCCdCCdCCdCCdNCdCC1CC.chk
%NProcShared=20
# opt freq b3lyp/6-31g(2df,p)

Title Card Required 

0  1
C           2.44198         0.11575        -0.22183
C           4.48763         0.42469        -0.58411
C           3.23947         0.87987        -1.12282
C           4.57953         0.95040        -1.20614
C           5.27522         1.69377        -2.08302
C           6.48308         1.91711        -2.34655
C           7.10885         2.55670        -3.10098
C           8.23602         2.61985        -3.17491
C           8.74009         3.40085        -4.09679
C           9.79145         3.22092        -3.88250
C          11.09066         4.10628        -4.92882
N          12.66791         3.95456        -4.73290
C          11.21981         3.07451        -3.74311
C           9.45682         1.98858        -2.43157
C           7.08225         0.88020        -1.12025
C           4.99963        -0.37967         0.36335
C           3.67668        -1.76411         1.99643
H           0.81079         0.46943        -0.63878
H           0.94849        -0.51894         0.52753
H           2.64512         1.40336        -1.74034
H           5.73909         0.51632        -0.69451
H           4.74415         2.22989        -2.71544
H           7.63044         1.65558        -2.03811
H           6.84251         3.11376        -3.75816
H           8.68161         1.46643        -1.81361
H           8.95384         3.99909        -4.80261
H          10.91511         2.20670        -2.68839
H          11.05170         4.81806        -5.76875
H          12.29542         4.21059        -5.05497
H          11.05574         2.83860        -3.42283
H           6.31614        -0.15462         0.09771
H           3.37483        -1.24582         0.71957
H           3.37483        -0.58942         1.27597
H           3.62077        -3.19089         2.29985
H           2.52993        -2.73005         3.13593
H           3.62076        -1.82977         3.45361

