%chk=CdC1c2sccc2CdCqNC2dNNCqdOrCN2rN1N.chk
%NProcShared=20
# opt freq b3lyp/6-31g(2df,p)

Title Card Required 

0  1
C           0.86253        -0.01401        -0.07663
C           2.20910         0.06164        -0.07306
C           2.99861        -1.12829        -0.07413
S           2.39045        -2.72448        -0.07071
C           3.95763        -3.38546        -0.07578
C           4.94131        -2.41509        -0.07873
C           4.38471        -1.09984        -0.07808
C           5.05186         0.19053        -0.05595
C           4.35110         1.37390        -0.01400
N           5.06615         2.60548         0.08869
C           4.54150         3.87803         0.01330
N           4.69324         4.66430        -1.01195
N           3.94090         5.82053        -1.04033
C           3.02934         6.21750        -0.09255
O           2.37548         7.26254        -0.21674
C           2.85409         5.31334         1.10692
N           3.74056         4.16731         1.08051
N           2.91210         1.27984        -0.06633
N           2.08941         2.40926        -0.14658
H           0.30544        -0.93772        -0.07847
H           0.25801         0.88650        -0.09440
H           4.05710        -4.46112        -0.07449
H           5.99409        -2.66487        -0.07688
H           6.13918         0.18466        -0.04390
H           5.99710         2.53473        -0.30906
H           4.03301         6.40565        -1.86439
H           1.80570         4.98744         1.12989
H           3.06182         5.88958         2.00970
H           3.53433         3.39455         1.70231
H           2.62895         3.23847        -0.35394
H           1.66452         2.54868         0.76668

