%chk=CdC1C2dCCdC1[SH]dCdCCdC2.chk
%NProcShared=20
# opt freq b3lyp/6-31g(2df,p)

Title Card Required 

0  1
C           1.33889         0.34171        -0.72578
C           2.60843         0.85095        -0.60280
C           2.98994         1.37008         0.67538
C           4.35056         1.17259         0.63466
C           4.74649         0.78835        -0.78067
C           3.80375         1.47670        -1.51340
S           4.64417         3.47505        -1.18204
C           3.49037         4.38536        -0.71822
C           2.65992         4.79613         0.24783
C           2.78456         3.73656         1.23618
C           2.16885         2.58741         0.92739
H           0.54372         0.88358        -0.13657
H           1.10235        -0.62214        -0.18080
H           5.19886         1.72349         1.02863
H           4.81273        -0.30991        -0.67868
H           5.30975         4.52346        -1.67411
H           1.74656         5.28137        -0.03117
H           3.82502         3.54789         1.51716
H           1.34435         2.71965         0.17686

