%chk=CdCC1dCdC2CdC2CdCCdCC1dS.chk
%NProcShared=20
# opt freq b3lyp/6-31g(2df,p)

Title Card Required 

0  1
C           1.09342         0.15748        -0.09598
C           2.39829         0.39141        -0.31680
C           3.36892         1.22639         0.38227
C           4.38807         0.63532         0.99683
C           5.51659         0.59438         1.58985
C           6.71270        -0.02832         1.43238
C           6.86715         1.03181         0.65082
C           6.33631         2.06399        -0.19603
C           6.50501         3.17896        -0.91513
C           5.17199         3.71915        -1.38494
C           4.24470         3.92588        -0.40731
C           3.34526         2.83708         0.50817
S           2.25106         3.40253         1.69572
H           0.53214        -0.42279        -0.83255
H           0.50971         0.50595         0.75085
H           2.84861        -0.20182        -1.11425
H           7.14852        -0.81675         1.98725
H           5.32709         1.81856        -0.41933
H           7.45214         3.69224        -1.04280
H           5.19623         4.49516        -2.16781
H           4.51212         4.92308         0.03205

