%chk=CdCCqOrC1dNCdCCdCCdCCdNS1.chk
%NProcShared=20
# opt freq b3lyp/6-31g(2df,p)

Title Card Required 

0  1
C           0.99134         0.00708        -0.04552
C           2.39096         0.01172        -0.04346
C           3.95033         0.56708         0.98839
O           2.81371         0.01177         2.27398
C           6.21627         0.46495         0.74591
N           5.59454         1.07104         1.84278
C           6.82190         1.04732         1.80483
C           7.67167         1.49875         2.60455
C           9.06154         1.49858         2.60506
C           9.62990         2.01306         3.51776
C          10.60633         1.58574         2.77459
C          11.90239         2.07160         3.62351
C          12.82619         1.59074         2.76510
N          11.61021         1.05813         1.78910
S           9.01259         0.51444         0.84381
H           0.39934        -0.44930        -0.85610
H           0.39512         0.44858         0.74100
H           2.81837        -0.46077        -0.87921
H           2.95480         1.65153         1.12617
H           2.93768        -0.94511         2.24680
H           7.46910         0.57517         0.97546
H           7.30201         1.94271         3.39259
H          10.08591         0.99501         1.71041
H           9.72865         2.46587         4.32149
H          10.84979         0.60566         1.04295
H          12.11283         2.59993         4.55967
H          14.18840         1.49705         2.60039

