%chk=CdCCqdNrNC1[SH]dCCNNC1SC.chk
%NProcShared=20
# opt freq b3lyp/6-31g(2df,p)

Title Card Required 

0  1
C           1.06285         0.06563        -0.09530
C           2.39765        -0.00492        -0.02077
C           3.11250        -0.85516         0.98135
N           2.46364        -1.57719         1.84641
N           4.47098        -0.88898         0.98418
C           5.31774        -1.57136         1.95130
S           4.74888        -1.40158         3.66313
C           5.11386         0.29112         4.05710
C           6.04786         1.24232         3.38767
N           6.04695         1.15930         1.93243
N           7.04312         0.23481         1.40816
C           6.82081        -1.17524         1.83796
S           7.72985        -2.26406         0.64653
C           7.32822        -3.91795         1.30453
H           0.57615         0.65060        -0.86579
H           0.40567        -0.46063         0.58539
H           3.01747         0.52715        -0.73671
H           1.46657        -1.41979         1.82230
H           4.99272        -0.15765         0.49852
H           5.17392        -2.63093         1.76745
H           5.68485        -2.06429         4.30212
H           4.68986         0.62116         5.01915
H           7.04366         1.16055         3.83036
H           5.66025         2.23257         3.65940
H           6.18423         2.09901         1.54456
H           8.00441         0.50033         1.63741
H           7.33347        -1.30711         2.79923
H           7.79443        -4.66862         0.66164
H           6.25961        -4.14298         1.29198
H           7.71327        -4.03862         2.32038

