%chk=CdCCqSrd[SH]c1cccqCdSrcc1.chk
%NProcShared=20
# opt freq b3lyp/6-31g(2df,p)

Title Card Required 

0  1
C           0.86077         0.17600         0.02780
C           2.19628         0.02131         0.03948
C           2.89103        -1.28291         0.11750
S           2.01401        -2.70355         0.57426
S           4.67139        -1.27251        -0.13665
C           5.26813        -2.95172         0.03895
C           4.56624        -4.06718        -0.40864
C           4.99997        -5.36117        -0.12551
C           6.27909        -5.55893         0.38698
C           6.77387        -6.95524         0.43772
S           8.32923        -7.43475         0.83869
C           7.05852        -4.44754         0.72288
C           6.54395        -3.15299         0.57463
H           0.41716         1.16152        -0.00837
H           0.16568        -0.64872         0.05245
H           2.82859         0.90379        -0.00347
H           0.82227        -2.45984         0.01207
H           5.06714        -0.75532         1.01054
H           3.65056        -3.95888        -0.97802
H           4.33293        -6.19044        -0.34699
H           6.03684        -7.72103         0.13525
H           8.07305        -4.56351         1.09311
H           7.17723        -2.30774         0.83788

