%chk=CdCC1CdC2CqdSrCdCC21.chk
%NProcShared=20
# opt freq b3lyp/6-31g(2df,p)

Title Card Required 

0  1
C           0.85191         0.09682         0.01127
C           2.17279         0.05549        -0.13182
C           3.07117         1.08048         0.47059
C           4.46686         1.04036        -0.15915
C           4.95279         0.19821         0.79491
C           4.87241        -1.31605         0.84853
S           5.54351        -2.35967        -0.24474
C           4.07123        -1.64130         2.04974
C           3.51982        -0.52378         2.55034
C           3.84168         0.71512         1.78239
H           0.25879        -0.72386        -0.38451
H           0.33889         0.90620         0.51987
H           2.62441        -0.78564        -0.65517
H           2.61205         2.07843         0.51502
H           4.96280         1.79461        -0.77670
H           3.99037        -2.63801         2.45324
H           2.95635        -0.50367         3.47310
H           4.05770         1.57497         2.42537

