%chk=CdCC1dCdCCdCSC2dCqCdC1rCdC2.chk
%NProcShared=20
# opt freq b3lyp/6-31g(2df,p)

Title Card Required 

0  1
C           1.61790        -0.61065        -0.50749
C           2.99780        -0.94224        -0.85094
C           4.23265        -1.93880        -1.90986
C           4.99776        -1.21110        -1.14618
C           6.02854        -0.65903        -0.66401
C           7.04206        -1.25485        -1.34663
C           8.31663        -1.14363        -1.24277
S           8.98697        -2.67163        -1.12116
C           9.86038        -2.41789        -2.53104
C           9.41330        -3.33275        -3.45046
C           7.36408        -3.27141        -3.36777
C           5.70135        -2.84679        -2.88902
C          11.19125        -3.25553        -3.34538
C          11.34359        -2.37443        -2.35521
H           1.18642         0.17437         0.30659
H           0.63109        -0.93984        -0.86003
H           3.40577        -0.18548        -0.06088
H           6.29529         0.02792         0.09290
H           6.83717        -2.20966        -1.70264
H           8.78250        -0.45851        -0.62574
H           7.61729        -4.12398        -4.09306
H           4.78147        -3.34304        -3.31254
H          12.37967        -3.62336        -3.54828
H          11.34477        -1.59192        -1.58764

