%chk=CdCC1dC2OOCqCrdCqCdC1rCdC2C.chk
%NProcShared=20
# opt freq b3lyp/6-31g(2df,p)

Title Card Required 

0  1
C           1.10683        -0.16572        -0.13399
C           2.47182        -0.30208        -0.16550
C           3.87975        -0.95736        -1.09225
C           4.97856        -0.22418        -1.10894
O           5.36013         0.07118        -2.41975
O           5.46531        -1.08185        -3.54960
C           6.58432        -1.96019        -3.67279
C           6.26585        -2.90491        -4.72189
C           7.32559        -1.97639        -2.58366
C           6.48621        -2.45614        -1.54871
C           4.71657        -2.22055        -1.56770
C           7.46050        -0.34121        -1.99216
C           6.44359        -0.21860        -0.64129
C           5.32358         0.48096         0.66010
H           0.53008         0.38685         0.69495
H           0.37971        -0.54438        -0.84500
H           2.76490         0.34963         0.67810
H           5.16889        -2.90572        -4.67624
H           6.64006        -3.91022        -4.49253
H           6.61967        -2.25358        -5.52910
H           7.48143        -2.00485        -1.02848
H           4.06304        -1.99332        -2.53993
H           8.38418        -0.87589        -2.76435
H           5.69979         0.93510         1.57301
H           4.57132        -0.27451         1.22124
H           4.52167         1.25978         0.35285

