%chk=CdCdNC1CdCCdCCdCC2dCC2dCCdC2CdCCdC21.chk
%NProcShared=20
# opt freq b3lyp/6-31g(2df,p)

Title Card Required 

0  1
C           1.99120         0.06378         0.06432
C           3.52865         0.32451         0.21372
N           4.77866         0.74660         0.53499
C           6.65403         0.45835         0.01283
C           6.36330        -1.16040        -0.06883
C           6.90758        -1.80520        -1.10239
C           8.27820        -1.66061        -1.10576
C           9.06106        -2.53473        -1.68663
C          10.40246        -2.29637        -1.50031
C          11.39192        -3.01571        -1.98582
C          12.69956        -2.65338        -1.73178
C          13.89533        -3.00019        -1.95957
C          13.63119        -1.72867        -1.12049
C          12.77575        -0.84403        -0.52365
C          12.16039         0.29056         0.23807
C          10.65865         0.80697         0.54963
C          11.54533         1.97801         1.41297
C          10.56505         2.71796         1.85612
C           9.11756         2.09847         1.36177
C           8.72908         0.95350         0.56798
H           1.14920        -0.60033         0.62921
H           1.11016         0.65411        -0.48146
H           5.98853         0.15946        -0.94141
H           6.36912        -0.68651         0.88380
H           6.43219        -2.60522        -1.69031
H           8.66400        -0.86189        -0.50569
H           8.70335        -3.36725        -2.22835
H          10.43200        -1.41983        -0.89758
H          11.16109        -3.88084        -2.57679
H          14.28011        -3.82649        -2.54861
H          11.77922        -0.97285        -0.58610
H          13.19681         0.74496         0.57750
H          12.68376         2.26263         1.63912
H          10.88905         3.62329         2.43655
H           8.51951         2.86552         1.76077

