%chk=CdNCqCCdC1CdCCdC1rdNN.chk
%NProcShared=20
# opt freq b3lyp/6-31g(2df,p)

Title Card Required 

0  1
C           1.09609         0.05394         0.26890
N           2.32773         0.04714        -0.06698
C           2.91518        -0.76211        -1.02575
C           2.15507        -1.53107        -2.12402
C           0.66450        -1.54531        -2.09507
C          -0.07167        -2.62092        -1.78651
C          -1.49279        -2.63328        -1.51217
C          -1.84506        -3.92814        -1.41213
C          -0.66615        -4.76066        -1.56132
C           0.41396        -3.97897        -1.69927
N           4.22055        -0.77720        -0.97848
N           4.91762        -1.50483        -1.86642
H           0.74500         0.75476         1.04451
H           0.28158        -0.56090        -0.12656
H           2.54407        -2.55411        -2.07362
H           2.47633        -1.13351        -3.09352
H           0.18654        -0.58261        -2.26381
H          -2.13126        -1.77918        -1.35044
H          -2.82976        -4.31295        -1.20194
H          -0.65881        -5.83750        -1.55998
H           1.42843        -4.31587        -1.82300
H           5.92875        -1.41913        -1.85980
H           4.50597        -1.98642        -2.65593

