%chk=CN1C2dCCqOrdNNSC1dCqCdNrNdCCdN2.chk
%NProcShared=20
# opt freq b3lyp/6-31g(2df,p)

Title Card Required 

0  1
C           1.12614        -0.32002        -0.23442
N           2.18206        -1.65766        -0.96697
C           3.29791        -0.99678        -0.60505
C           4.64621        -0.94377        -0.57602
C           5.47604        -1.94527        -1.12449
O           4.42385        -2.49042        -1.42304
N           6.49740        -2.53476        -1.44732
N           5.99136        -3.76634        -2.12180
S           3.96123        -4.44214        -2.49189
C           1.92089        -3.46729        -1.95802
C           0.05099        -4.02873        -2.26549
C          -1.93104        -4.46342        -2.50355
N          -2.99112        -5.18701        -2.89982
N          -0.92676        -3.15167        -1.78517
C           0.24954        -3.40373        -1.92321
C           0.66867        -2.20679        -1.26771
N           2.41371        -2.02622        -1.16883
H           1.07550         0.68953         0.31845
H           0.63211        -0.88464         0.56891
H           0.63211         0.05278        -1.14281
H           5.24036        -0.18978        -0.16310
H           3.89545        -3.15516        -1.78708
H           6.91124        -4.23202        -2.37682
H          -2.85736        -3.61998        -2.04164
H          -3.15903        -6.07031        -3.38356
H           1.22275        -4.67839        -2.62128
H          -0.03128        -1.52358        -0.89355

