%chk=CN1CdNCdCCdCCdCCdCC2dNC1dC2.chk
%NProcShared=20
# opt freq b3lyp/6-31g(2df,p)

Title Card Required 

0  1
C           4.16041         1.46643         2.35777
N           6.41110         2.30073         3.69973
C           4.74138         1.43902         2.31367
N           4.98549         0.63131         1.01449
C           5.75776         1.29438         2.08103
C           6.98959         1.32779         2.13476
C           7.77216         2.00081         3.21733
C           8.91030         1.91911         3.08590
C           9.36903         2.44993         3.93972
C          10.66404         2.48594         3.99764
C          11.43094         3.00777         4.83700
C          12.75062         3.36862         5.41744
C          12.20093         4.03473         6.48886
N          10.41937         3.76182         6.04990
C           8.31608         3.11497         5.00943
C          10.04867         3.92590         6.31382
H           2.92494         0.67226         1.08036
H           2.61230         1.25141         1.19809
H           2.61229         0.52159         1.65181
H           2.85047         1.48470         2.38715
H           4.89308         2.11414         3.39961
H           7.22560         0.84507         1.35831
H           6.68830         2.85238         4.58707
H           9.32798         1.53063         2.46104
H           7.65162         2.71947         4.37326
H          11.48633         2.24057         3.60297
H          10.10234         3.12895         5.03193
H          13.52472         3.00332         4.82985
H          11.60764         4.50493         7.24519

