%chk=CN1SC2SCCdC2CdCCdCC1dS.chk
%NProcShared=20
# opt freq b3lyp/6-31g(2df,p)

Title Card Required 

0  1
C           1.04860         0.24395        -0.20454
N           2.46610         0.53064        -0.59666
S           3.32723        -0.97994        -0.62720
C           5.06829        -0.99129        -0.14499
S           5.57797        -2.53617         0.69899
C           5.88951        -1.72771         2.29505
C           5.95812        -0.27189         1.99825
C           5.58884         0.08806         0.77017
C           5.74422         1.42983         0.27464
C           5.56181         1.60367        -1.01833
C           4.92025         2.73378        -1.56815
C           3.72553         2.40593        -2.09176
C           2.75533         1.87555        -0.98233
S           1.95466         3.16445        -0.14754
H           0.82345        -0.82889        -0.12048
H           0.38166         0.64409        -0.97737
H           0.81563         0.69532         0.76465
H           5.59696        -1.05014        -1.09791
H           6.83025        -2.07704         2.73001
H           5.06085        -1.95257         2.96701
H           6.35685         0.43201         2.72253
H           5.82611         2.26230         0.97224
H           5.40499         0.76868        -1.70548
H           5.32841         3.73725        -1.48992
H           3.30637         3.19668        -2.72341

