%chk=CNC1dCCdCCdCCdCCdCdCdCCdC1.chk
%NProcShared=20
# opt freq b3lyp/6-31g(2df,p)

Title Card Required 

0  1
C           2.05301        -0.75379         0.03308
N           4.02356        -1.71141         0.16826
C           5.90264        -2.94121         0.30873
C           5.11015        -1.57757        -0.26895
C           5.59345        -2.52226        -1.20340
C           6.99519        -2.31921        -1.28218
C           7.74190        -3.41666        -1.89121
C           9.06040        -3.55749        -1.66925
C           9.43317        -4.97150        -2.08427
C          10.78626        -4.95957        -2.22975
C          11.45443        -6.46255        -2.35600
C          12.70390        -6.53293        -2.17108
C          13.46686        -6.09275        -1.43091
C          12.10880        -5.27481        -0.55655
C           9.97597        -4.79376        -0.07977
C           7.93295        -3.99138         0.16202
H           1.08185         0.56866         0.24497
H           0.81191        -0.92920         0.73524
H           0.88018        -0.47068        -0.95557
H           3.58028        -0.31545         0.14088
H           5.22922        -0.41274        -0.14477
H           4.80594        -3.37678        -1.47423
H           7.28721        -1.60346        -0.43809
H           7.07158        -4.52598        -1.72165
H           9.41237        -2.88802        -0.77760
H           8.95917        -5.97046        -1.67786
H          11.34702        -4.08990        -1.38984
H          11.01450        -7.36052        -1.96216
H          13.71337        -5.28616        -1.11337
H          11.16680        -5.80921        -0.24872
H           6.59781        -4.39159        -0.22953

