%chk=CNC1CdC2CdCCqCrdC1NdCCdCS2.chk
%NProcShared=20
# opt freq b3lyp/6-31g(2df,p)

Title Card Required 

0  1
C           1.12898        -0.02545        -0.07411
N           2.59222        -0.14794         0.01281
C           3.17262         1.06609        -0.51434
C           3.19702         1.94892         0.82087
C           3.20825         3.42283         0.88711
C           2.58725         4.33705        -0.03860
C           2.27033         3.89585        -1.21485
C           3.05341         2.68893        -1.60065
C           1.44391         2.35083        -2.65368
C           4.26729         2.00300        -0.77564
N           5.58337         1.76965         0.57977
C           6.20677         2.05995         1.90866
C           6.01379         3.21030         3.07524
C           4.77517         3.35216         2.73909
S           4.26421         4.58659         1.76316
H           0.69520        -0.81990         0.53260
H           0.73958        -0.13618        -1.09458
H           0.73878         0.92220         0.33016
H           2.89933        -0.97719        -0.48553
H           3.69637         0.61925        -1.44018
H           3.81558         1.16492         1.37664
H           2.47230         5.41639         0.05761
H           1.52092         4.47148        -1.77482
H           0.80696         3.30312        -2.87273
H           0.47823         1.80905        -2.35705
H           1.60480         2.15252        -3.71835
H           6.90875         1.26690         2.68958
H           6.62783         4.01954         3.50262
H           4.32743         2.40890         2.54269

