%chk=CNCC1dNCdCCdCCdC1NNN.chk
%NProcShared=20
# opt freq b3lyp/6-31g(2df,p)

Title Card Required 

0  1
C           0.97585         0.00300        -0.11597
N           2.42320         0.07339        -0.14905
C           2.98958        -0.81224        -1.17338
C           4.52648        -0.79127        -1.12494
N           5.14311         0.28296        -1.53654
C           6.51465         0.25156        -1.60978
C           7.21061        -0.45642        -2.51340
C           6.57543        -1.37859        -3.43494
C           5.90996        -2.46524        -3.01474
C           5.79619        -2.82505        -1.61072
C           5.18055        -2.09308        -0.66170
N           5.09428        -2.46868         0.67130
N           4.45537        -1.70087         1.61460
N           4.66104        -2.21948         2.90457
H           0.60022         0.62890         0.69917
H           0.61322        -1.01696         0.04995
H           0.55338         0.38757        -1.04909
H           2.82845        -0.10501         0.76440
H           2.68061        -0.47021        -2.16851
H           2.63728        -1.84339        -1.04872
H           7.03743         0.89457        -0.90630
H           8.29523        -0.40682        -2.53872
H           6.63650        -1.13546        -4.49239
H           5.42559        -3.12267        -3.73212
H           6.28732        -3.75624        -1.34136
H           5.74618        -3.18761         0.96934
H           3.45048        -1.68779         1.40700
H           5.64173        -2.18139         3.17919
H           4.33493        -3.18013         2.99191

