%chk=CNdC1CdCCdCCdCCqdOrNdN1.chk
%NProcShared=20
# opt freq b3lyp/6-31g(2df,p)

Title Card Required 

0  1
C           1.36579         0.22719         0.29330
N           3.08852         0.56634         1.10242
C           4.23003         1.06825         2.29985
C           4.55262         0.42213         0.75843
C           5.50548         0.71108         1.44759
C           6.88852         0.75901         1.56204
C           7.40021         1.25263         2.73971
C           9.01088         1.37653         3.03531
C           9.35574         2.04366         4.62690
C           9.53329         1.57187         3.50131
O          10.95466         1.60940         3.59087
N           7.72547         1.84505         4.15304
N           5.80448         1.53194         3.40605
H           0.90274        -0.26206        -0.87390
H           0.72495         1.14071         0.15517
H           0.72495        -0.51179         0.84785
H           5.21757         0.10172        -0.00602
H           6.03263         0.98447         2.10009
H           7.55080         0.46916         0.87059
H           6.54521         1.89978         4.28363
H           9.62354         0.94593         2.00802
H           9.02654         2.42757         5.54277

