%chk=CNdCc1cccccnccc2cqccn1r[C]dC2.chk
%NProcShared=20
# opt freq b3lyp/6-31g(2df,p)

Title Card Required 

0  2
C           1.47452         0.12271        -0.02149
N           3.54204         0.35038        -0.13447
C           5.15782         1.13446        -0.52358
C           7.43161         1.75704        -0.83254
C           5.76804         2.26762        -1.08592
C           7.25749         2.08335        -0.99448
C           7.54090         3.48942        -1.69225
C           8.78897         3.70833        -1.80089
C           9.65806         4.60934        -2.24802
N          10.90568         4.56297        -2.22501
C          11.49053         5.56732        -2.72343
C          12.67035         5.83567        -2.85660
C          13.75400         6.41439        -3.14380
C          14.55884         5.33353        -2.60741
C          13.17395         3.72033        -1.80684
C          11.48268         2.79177        -1.34603
N           9.39259         2.01266        -0.95939
C          14.91943         7.11891        -3.49342
C          13.86670         7.80063        -3.83173
H           0.74691        -0.91583         0.49390
H           0.69935         0.04613        -0.97577
H           0.69935         0.83638         0.61664
H           3.67399         1.67057        -0.78963
H           4.91844         2.98257        -1.44072
H           8.29737         0.87195        -0.39330
H           6.82285         4.14247        -2.01633
H           9.74231         3.34920        -1.62267
H           9.06348         5.32875        -2.60504
H          11.05196         6.34703        -3.11037
H          12.95180         5.04270        -2.46308
H          14.73316         4.13729        -2.01376
H          13.01082         2.79447        -1.34738
H          12.55885         8.12877        -3.99458

