%chk=CNdC1CdCCdCdCdCNdCCdNCdCSS1.chk
%NProcShared=20
# opt freq b3lyp/6-31g(2df,p)

Title Card Required 

0  1
C           2.11786        -0.88313         0.22652
N           3.52829        -2.35928         0.50441
C           5.11990        -3.05010         0.47651
C           5.14143        -1.37352         0.74441
C           5.65319        -1.73594         1.88909
C           7.06291        -1.73460         1.64889
C           7.82059        -2.52241         2.34428
C           8.40760        -3.38484         2.95529
C           8.98474        -4.41925         3.53001
N          10.33983        -4.62729         3.27871
C          10.96507        -5.63712         3.81143
C          12.42755        -5.93500         3.30988
N          13.07462        -6.96957         3.77905
C          12.81242        -7.72453         2.55000
C          11.13042        -7.63428         2.34356
S           9.15593        -6.41952         1.55669
S           6.85474        -4.82670         1.13563
H           1.61122         0.30424        -0.41082
H           1.25877        -0.31185         1.11362
H           1.08235        -1.26909        -0.35259
H           5.23388        -0.44016         0.11898
H           5.00653        -2.50581         2.39801
H           7.39390        -1.09970         0.81345
H           8.41694        -5.12962         4.15133
H          10.47222        -6.46537         4.40917
H          12.55711        -5.84638         2.16367
H          14.03072        -7.58629         2.16919
H          11.78097        -8.50993         3.33958

