%chk=CNqCrC1dCCdCc2cscqc2rCdC1N.chk
%NProcShared=20
# opt freq b3lyp/6-31g(2df,p)

Title Card Required 

0  1
C           1.22800         0.29735         0.04597
N           2.77556         0.50500        -0.02684
C           3.26157        -0.89438        -0.57931
C           3.94811         1.66078         0.32130
C           5.13146         0.97074         0.54200
C           5.84231         1.45957         1.59525
C           7.20686         1.64603         1.42259
C           7.78954         2.64247         2.22548
C           7.27590         3.19031         3.45340
S           7.84271         4.86553         3.41259
C           7.08859         4.46623         1.63203
C           8.31502         3.73024         1.48416
C           5.40339         4.29124         1.40862
C           4.16001         3.32759         0.95769
N           2.74888         3.36097         1.25039
H           0.91436        -0.68014        -0.43628
H           0.64804         0.99249        -0.56207
H           0.78410         0.11875         1.04246
H           2.47376        -1.59431        -0.92844
H           3.80231        -1.49816         0.16841
H           3.86847        -0.72407        -1.47037
H           5.23751        -0.00977         0.18389
H           5.34071         2.01546         2.37644
H           7.58781         1.30307         0.47866
H           6.25600         3.19121         3.84190
H           8.88627         3.64588         0.55522
H           5.77614         5.19383         0.81365
H           2.05529         3.85033         1.79940
H           2.29929         2.46814         0.97220

