%chk=CNSC1CdCC2dCCdCC2dCCdCCdN1.chk
%NProcShared=20
# opt freq b3lyp/6-31g(2df,p)

Title Card Required 

0  1
C           1.17825        -0.00298        -0.10913
N           2.67409        -0.13826        -0.06908
S           3.42033        -1.47059        -0.81273
C           5.41330        -1.22641        -0.99314
C           5.59380        -1.79133        -2.40309
C           6.70074        -1.59004        -3.13645
C           7.16578        -2.60785        -4.06488
C           6.76467        -2.72668        -5.34088
C           7.43701        -3.85507        -5.95988
C           8.24480        -4.46612        -5.07449
C           8.12587        -3.73927        -3.82663
C           8.74067        -4.08925        -2.67655
C           8.36408        -3.38091        -1.48918
C           8.49992        -3.33708        -0.19942
C           7.47745        -2.32591         0.43153
N           6.41794        -1.65913         0.09785
H           0.81660         0.64272         0.70899
H           0.67283        -0.96767         0.03046
H           0.79319         0.44758        -1.03548
H           2.88268        -0.24600         0.92283
H           5.53149        -0.13868        -1.08422
H           4.79197        -2.37566        -2.86348
H           7.47663        -0.97371        -2.68012
H           6.05475        -2.07304        -5.82156
H           7.28843        -4.14226        -6.98692
H           8.85255        -5.34214        -5.22782
H           9.40640        -4.94289        -2.60760
H           7.69913        -2.60728        -1.70817
H           9.20545        -3.97157         0.34348
H           7.84210        -2.13267         1.46531

