%chk=COC1dCCdCCC2dC3CSCdC2CdCCdCCdC13.chk
%NProcShared=20
# opt freq b3lyp/6-31g(2df,p)

Title Card Required 

0  1
C           2.25542        -0.84330         0.19116
O           3.72347        -2.21547         0.36958
C           5.60186        -3.11149         0.28606
C           5.45664        -1.66798         0.60247
C           5.47774        -1.90405         1.97898
C           6.79832        -1.83265         2.04374
C           7.30740        -3.11714         2.71389
C           8.76817        -3.18805         2.46961
C           8.70369        -2.95943         1.15433
C          10.23410        -1.74996         1.64695
S          11.90953        -2.47519         1.74640
C          11.17572        -3.92833         1.89711
C           9.89875        -4.08562         2.28392
C           9.54287        -5.35581         2.53177
C          10.33418        -6.39211         2.39438
C           9.54885        -7.56175         2.65752
C           9.46188        -7.50342         1.30336
C           8.11860        -6.07144         0.88472
C           7.27016        -4.29700         0.71252
H           1.54062         0.31104        -0.45435
H           1.27884        -0.27194         1.08331
H           1.13479        -1.26143        -0.34745
H           5.23853        -0.51601         0.24781
H           4.80141        -2.76142         2.30806
H           7.28030        -1.33619         1.07962
H           6.63387        -4.00069         2.50801
H           7.15082        -3.06144         3.73929
H          10.68924        -1.06052         2.67506
H          10.61351        -1.06343         0.87748
H          11.88814        -4.70431         1.76620
H           8.45412        -5.44309         2.70300
H          11.34134        -6.40155         1.90477
H           8.46554        -7.88916         2.75670
H          10.72614        -8.31396         1.59216
H           8.29175        -7.51671         0.91291

