%chk=COC1dCCdCC2dCqSCdNC2rSC1dNN.chk
%NProcShared=20
# opt freq b3lyp/6-31g(2df,p)

Title Card Required 

0  1
C           1.20596        -0.12422         0.19338
O           2.61667        -0.31165         0.13171
C           3.46409        -0.91983         1.07754
C           4.69751        -0.45478         1.02894
C           5.50926        -0.63505         2.16940
C           6.74301        -1.03432         2.09148
C           7.10443        -1.90267         3.17101
C           6.25819        -2.90278         3.55958
S           7.06838        -4.12136         4.61218
C           8.47019        -3.27062         5.29103
N           8.97094        -2.16276         4.88959
C           8.46175        -1.48281         3.72002
S           4.36369        -3.30213         2.92607
C           3.06033        -1.92263         2.21841
N           1.76435        -1.80169         2.45737
N           0.90463        -2.52859         3.18137
H           0.92363         0.50230        -0.67109
H           0.85250         0.42509         1.07458
H           0.68550        -1.07303         0.06248
H           5.06247         0.15120         0.21187
H           4.96521        -0.80096         3.10717
H           7.39575        -0.93202         1.22442
H           8.98867        -3.72068         6.16344
H           9.24934        -1.50962         2.95258
H           8.38275        -0.41998         4.00266
H          -0.01740        -2.05722         3.11807
H           1.09440        -2.55439         4.18027

