%chk=COC1dCqOrC2dCC3dCCdCNN3OC2dN1.chk
%NProcShared=20
# opt freq b3lyp/6-31g(2df,p)

Title Card Required 

0  1
C           1.09651        -0.01507         0.08531
O           2.52220         0.00067         0.08839
C           3.19695        -0.76469         1.01503
C           2.89228        -2.02615         1.38886
O           1.88395        -2.87802         1.06557
C           3.94944        -2.43165         2.25228
C           4.19575        -3.55026         2.88915
C           5.32486        -3.66590         3.68346
C           5.54731        -4.79460         4.31808
C           6.64375        -4.81867         5.05081
C           7.70353        -4.86604         5.77400
N           7.46572        -3.16367         4.88271
N           6.23549        -2.69095         3.86598
O           6.02812        -1.38080         3.16366
C           4.85945        -1.29796         2.35401
N           4.40232        -0.29801         1.60853
H           0.72109         0.62104        -0.72598
H           0.70709         0.36696         1.02928
H           0.68588        -0.99980        -0.10310
H           1.24900        -2.47711         0.45453
H           3.58711        -4.42393         2.86264
H           4.99084        -5.67548         4.32926
H           7.72734        -4.43731         5.60384
H           7.36402        -6.19099         6.11972
H           8.06181        -2.32941         4.91665

