%chk=COC1dCNdCC2dCCdCSCdCCdCC2dC1.chk
%NProcShared=20
# opt freq b3lyp/6-31g(2df,p)

Title Card Required 

0  1
C           1.02967         0.10751        -0.03332
O           2.56858         0.02673        -0.12510
C           3.48037         0.87421        -1.30096
C           2.81158         2.08191        -1.37805
N           3.29575         3.07324        -2.15772
C           4.38893         2.90292        -2.84136
C           5.34575         1.76987        -3.01230
C           6.18445         2.35263        -3.76973
C           6.42928         3.41073        -4.49009
C           7.37151         3.77936        -5.22878
S           7.84172         5.05397        -6.07018
C           9.63169         4.19301        -5.99640
C           9.39113         4.28179        -7.28521
C           8.88077         2.54562        -6.39831
C           7.95168         1.38616        -5.00179
C           6.53500         0.74136        -3.55751
C           5.15086         0.37184        -2.27689
H           0.63004        -0.50932         0.81029
H           0.60672        -0.31771        -0.94601
H           0.61165         1.11145         0.12341
H           1.85458         2.41592        -0.83081
H           4.62657         3.78651        -3.39694
H           7.13760         2.11031        -3.92074
H           5.82868         4.15627        -4.41308
H           8.10979         3.13765        -5.03420
H          10.56979         3.09820        -6.51150
H           9.41396         5.78896        -7.68786
H           9.70816         3.34288        -7.49598
H           7.94713         0.36491        -4.21265
H           4.64770        -0.63435        -1.40954

