%chk=CSCC[C]C1dCCdCCdCCdC1SC.chk
%NProcShared=20
# opt freq b3lyp/6-31g(2df,p)

Title Card Required 

0  1
C           0.95707        -0.13388         0.02843
S           2.74018        -0.03436        -0.05467
C           3.24657        -1.35679         1.13049
C           4.74173        -1.26556         1.03185
C           5.63912        -2.14286         1.77750
C           7.02743        -2.39891         2.02534
C           7.68442        -1.53052         1.23778
C           8.94867        -0.98047         0.95353
C          10.16026        -1.16880         1.45391
C          10.64737        -2.11560         2.38871
C          10.09972        -3.11031         3.08844
C           8.78255        -3.64833         3.33287
C           7.49748        -3.39010         2.98755
S           6.36188        -4.49334         3.85167
C           4.67092        -4.07829         3.40387
H           0.56002         0.62385        -0.65356
H           0.60646         0.08884         1.03669
H           0.60909        -1.11349        -0.30124
H           2.88801        -2.33773         0.80753
H           2.89616        -1.13823         2.14291
H           5.05404        -0.24824         1.31286
H           5.02667        -1.42603        -0.01767
H           7.04960        -0.96785         0.54690
H           8.87335        -0.18985         0.20065
H          10.92003        -0.50227         1.04676
H          11.72413        -1.98843         2.51648
H          10.84767        -3.67205         3.65711
H           8.91906        -4.48975         4.02531
H           3.96606        -4.72788         3.92987
H           4.50091        -4.24378         2.33586
H           4.41918        -3.05469         3.69853

