%chk=NC1CdCCdCSCdNCqCqdOrOrd[SH]1.chk
%NProcShared=20
# opt freq b3lyp/6-31g(2df,p)

Title Card Required 

0  1
N           2.06925         0.44763         0.12998
C           4.01798         0.79710         0.44618
C           3.28890         0.63912         1.70701
C           4.42430         0.20227         2.16175
C           4.79763         0.93937         3.29267
C           6.07461         0.95744         3.64100
S           6.51209         1.68089         5.09784
C           8.21282         1.38014         4.77787
N           7.90750         2.56037         4.20368
C           8.35288         2.46683         2.84569
C           9.82480         2.84270         4.35610
O           9.61742         3.08055         5.67655
O          11.37460         2.75002         5.13203
S           6.16034         1.91055         1.33675
H           1.40815        -0.28023         0.76728
H           1.48765        -0.12021        -0.71799
H           3.83176        -0.46906         0.03402
H           2.34229         1.04363         2.09593
H           5.19403        -0.20376         1.38176
H           4.07944         1.63738         3.70032
H           6.91937         0.64098         2.95597
H           9.16224         0.99239         4.05862
H          12.43893         2.72370         5.56073
H           5.96729         1.43115        -0.02208

