%chk=NC1CC2dCCdCC1dCCdCOCdC2.chk
%NProcShared=20
# opt freq b3lyp/6-31g(2df,p)

Title Card Required 

0  1
N           2.02839        -0.35059         0.08894
C           3.76677        -1.09209         0.29987
C           3.46306        -1.67116        -1.06913
C           4.91079        -1.67252        -1.54884
C           5.86015        -0.60289        -1.69583
C           5.70172         0.75201        -1.41724
C           5.41707         0.51922        -0.09180
C           5.72270        -1.17610         0.67049
C           7.22768        -2.27755         0.96889
C           8.32429        -3.82212         0.75925
C           8.70790        -3.85165        -0.52461
O           7.41177        -4.13199        -0.92225
C           6.70288        -3.04542        -1.19803
C           5.38784        -2.97580        -1.11303
H           1.23131        -0.84736         0.58965
H           1.38278        -0.17668        -0.78066
H           3.40719        -0.29614         1.06563
H           2.88719        -1.37442        -1.97738
H           2.87493        -2.56997        -0.73933
H           6.88264        -0.43752        -1.06599
H           6.44436         1.48907        -1.77438
H           4.40235         1.03881        -0.83529
H           8.56444        -2.42943         1.14291
H           8.69683        -5.15292         0.58479
H           9.35553        -2.95366        -0.65302
H           7.33720        -2.13226        -1.13566
H           4.83994        -3.77228        -0.58006

