%chk=NC1dC2CdCCCC[N]CdCCdC2CdC1.chk
%NProcShared=20
# opt freq b3lyp/6-31g(2df,p)

Title Card Required 

0  2
N           0.91831         0.19033         0.05888
C           2.16823         0.12838         0.08205
C           2.73870        -1.01255         0.11038
C           2.24174        -2.31998         0.62278
C           0.82593        -2.65424         0.51882
C           0.90887        -4.73292         0.54464
C          -0.11713        -3.76649         0.50833
C           0.09605        -5.90297         0.42447
N          -1.36338        -4.70748         0.27411
C          -1.75020        -6.06278        -0.14187
C          -0.53160        -4.90499        -0.81132
C           1.63409        -3.68707        -0.70109
C           2.93211        -2.33514        -0.34969
C           4.02400        -0.50108         0.03734
C           3.25916         0.91183         0.05676
H           0.37751        -0.59816         0.07433
H           0.37917         0.95728         0.06667
H           3.15854        -3.66035         0.59329
H           0.17772        -1.91399         0.00811
H           1.44774        -4.94563         1.28999
H           1.24519        -5.19261        -0.95194
H          -0.81211        -3.35872        -0.89752
H          -0.85200        -3.55065         1.20085
H          -0.44893        -6.45361         1.15652
H          -0.36060        -6.52291        -0.91478
H          -2.28772        -7.55621         0.06119
H          -1.93823        -5.78076        -0.20211
H           3.07502        -3.18872        -0.68772
H           5.09513         0.64340         0.05970
H           3.09175         2.08279         0.06814

