%chk=NC1dCCdCC2dCCdNC2dCCdCCdCSC1dO.chk
%NProcShared=20
# opt freq b3lyp/6-31g(2df,p)

Title Card Required 

0  1
N           1.14540        -0.36529        -0.02281
C           2.34599        -0.49846        -0.74678
C           3.24785        -1.39354        -0.32645
C           4.67411        -1.15254        -0.37664
C           5.49799        -2.10733        -0.82411
C           6.91442        -1.98116        -1.02767
C           7.73832        -1.67772        -0.00260
C           9.04275        -1.85689        -0.61694
N           9.05131        -2.21272        -1.86926
C           7.72950        -2.29238        -2.20640
C           7.30974        -2.60242        -3.46619
C           5.93420        -2.67746        -3.80308
C           5.27580        -3.08293        -4.90510
C           3.82089        -3.06215        -4.65961
C           3.18603        -1.88331        -4.85770
S           2.02242        -1.16704        -3.64487
C           2.59281        -0.02816        -2.22565
O           2.85565         1.16092        -2.38741
H           0.34630        -0.69658        -0.55066
H           0.93445         0.61225         0.20811
H           2.95750        -2.38844        -0.67384
H           5.05347        -0.18475        -0.04754
H           5.05635        -3.03726        -1.17876
H           7.50170        -1.45812         1.01490
H           9.94326        -1.70658        -0.00905
H           8.04051        -2.81743        -4.23174
H           5.25497        -2.33433        -3.04364
H           5.79065        -3.37407        -5.81139
H           3.57630        -3.57705        -3.72719
H           3.03901        -1.78969        -5.96199

