%chk=NC1dCCdCCdCdCCNqCNdOrCdC1.chk
%NProcShared=20
# opt freq b3lyp/6-31g(2df,p)

Title Card Required 

0  1
N           2.05054         1.22236         0.41660
C           3.57618         1.95258        -0.06921
C           3.56584         1.15219        -1.13990
C           4.85189         0.66231        -1.39153
C           5.67307         1.52927        -1.96243
C           6.98223         1.50712        -1.40494
C           7.81875         2.39889        -1.68961
C           8.61162         3.37257        -1.84624
C           8.10325         4.63388        -1.36979
N           7.17018         5.43925        -2.02005
C           8.79025         5.67893        -3.20970
N          10.18290         4.56919        -3.39844
O          10.46949         4.13535        -4.53044
C           5.75602         4.54678        -1.33946
C           4.82596         3.34120        -0.25969
H           1.33427         1.19517        -0.36673
H           1.94919         0.09797         0.47558
H           2.81176         1.72632        -1.67925
H           5.27779         0.02420        -0.60563
H           5.17729         2.45271        -2.32123
H           7.34369         0.97606        -0.54726
H           8.91298         3.22188        -2.87263
H           8.47366         5.37435        -0.66630
H           7.47272         4.37437        -2.24930
H           9.71532         6.29755        -2.71605
H           8.82744         6.19185        -4.21031
H           5.91462         5.39683        -0.64210
H           5.41394         2.53842         0.32375

