%chk=NC1dCCdCCdC2[N]NdCC2dCCdCCdCdCdCCdN1.chk
%NProcShared=20
# opt freq b3lyp/6-31g(2df,p)

Title Card Required 

0  2
N           3.10977        -0.68253        -0.94056
C           4.98543        -0.63899        -1.36411
C           3.98927         0.35746        -0.43394
C           4.90618         1.05343         0.35842
C           5.33315         2.08713         1.05225
C           6.79539         2.15147         1.06385
C           7.50425         3.20059         1.53987
N           7.06590         4.34651         2.15730
N           8.06973         4.87308         2.94920
C           9.17674         4.25707         2.66335
C           8.97040         3.26661         1.58770
C           9.92530         2.70246         0.82273
C           9.63368         1.79588        -0.26447
C          10.54366         1.21800        -1.02175
C          10.15391         0.39297        -2.04494
C          11.08835        -0.07446        -2.72982
C          11.64337        -0.81253        -3.40619
C          10.45435        -1.49565        -3.70074
C           8.47726        -1.49927        -2.81167
N           6.84442        -1.25286        -2.12285
H           2.20366         0.12618        -0.29371
H           1.86999        -0.99496        -0.80563
H           3.23096         1.22282         0.40104
H           5.50282         0.21302         0.28738
H           4.75876         2.93758         1.35982
H           7.28011         1.25939         0.64368
H          10.14183         4.42642         3.17624
H          10.97812         2.93974         0.98775
H           8.60710         1.56842        -0.50253
H          11.59031         1.39535        -0.89194
H           9.14495         0.17035        -2.28171
H          11.77520        -1.48656        -4.38486
H           9.42524        -2.65194        -3.13166

