%chk=NC1dC2SCqdNCdC1rCdCCdCCdCCC2NO.chk
%NProcShared=20
# opt freq b3lyp/6-31g(2df,p)

Title Card Required 

0  1
N           1.11372        -0.05471        -0.03562
C           2.87651        -0.20263         0.03425
C           4.24747        -1.30635         0.28473
S           5.70411        -1.22901        -0.51032
C           6.05735         0.13063        -0.02992
N           5.51602         1.19937         0.00740
C           4.31538         1.65282        -0.03477
C           3.08838         1.24220        -0.04810
C           7.21942        -0.71723        -0.24173
C           8.08526         0.10482         0.13903
C           8.85736        -0.63893        -0.81118
C           9.93671         0.01952        -0.28088
C          10.75156        -1.08941        -0.94894
C          10.77207        -0.81894         0.36899
C           8.64958        -1.77020         0.77088
C           6.28686        -2.13108         0.56578
N           4.01094        -2.45843         0.02903
O           2.02106        -2.82418         0.15502
H           0.44820        -0.83066         0.00029
H           0.51828         0.87158        -0.04250
H           4.58787         2.65931        -0.03093
H           2.36778         2.09661        -0.05542
H           7.57850        -2.21175        -0.19382
H           7.82959         1.05331        -0.02104
H           8.84059        -2.19078        -0.84754
H          10.34449         1.04360         0.00876
H          11.39567        -2.32888        -0.47147
H          12.09649         0.17323         0.13997
H          10.37384        -1.76651         1.03869
H          10.36359        -1.88477         0.51608
H           5.14494        -3.08677         0.08936
H           2.78865        -1.85810        -0.49719
H           0.76718        -3.26362         0.50074

