%chk=NC1dCqNNCCdOrCdCCdCdC2CdCC2dCCdC1.chk
%NProcShared=20
# opt freq b3lyp/6-31g(2df,p)

Title Card Required 

0  1
N           2.34549         0.01824        -0.22952
C           4.03226        -0.32775        -0.81802
C           3.51196        -1.55110        -0.49347
N           2.42921        -2.45848        -0.27575
N           0.98458        -2.45354        -0.37386
C           0.50716        -3.87480        -0.53936
C          -1.01142        -3.93129        -0.54558
O          -1.64932        -4.97069        -0.70849
C           4.56290        -1.88631         0.33239
C           5.23536        -2.88852        -0.15820
C           6.53942        -2.93786         0.24821
C           7.13508        -3.94331        -0.21018
C           7.91881        -4.81711        -0.60214
C           7.86148        -6.18518        -0.61050
C           9.15902        -6.19307        -0.92298
C           9.18301        -4.56379        -1.12472
C           8.98152        -2.97833        -1.29240
C           7.66298        -1.44160        -1.16641
C           6.09281        -0.60316        -0.94863
H           1.56347        -0.81985        -0.12314
H           1.55230         0.74066        -0.05893
H           2.84222        -3.37796        -0.43608
H           0.67606        -1.97480        -1.22050
H           0.85731        -4.52499         0.27098
H           0.85617        -4.27073        -1.50185
H          -1.54408        -2.97702        -0.40550
H           5.00262        -1.05182         0.90191
H           4.74387        -3.65281        -0.69464
H           7.01841        -2.00794         0.59736
H           6.99752        -6.77507        -0.37619
H           9.69380        -7.21277        -1.04563
H          10.27239        -3.20703        -1.37132
H           8.94518        -1.18569        -1.07445
H           5.86420         0.48473        -0.45530

