%chk=NCC1dC2CdCCdCCdCCdC2CqOrC1.chk
%NProcShared=20
# opt freq b3lyp/6-31g(2df,p)

Title Card Required 

0  1
N           1.09649         0.11707         0.09804
C           2.55723         0.14409         0.12158
C           3.18802         1.24308         0.98780
C           4.27878         1.10306         1.79533
C           4.96846        -0.12916         1.71391
C           6.23125         0.02554         1.95742
C           7.20416        -0.88913         2.39064
C           8.15527        -0.17392         3.02137
C           7.99860        -0.25387         4.47598
C           7.22080         0.89672         4.65352
C           6.02341         2.05098         3.83050
C           4.88881         2.24026         2.70188
C           3.80855         3.39622         1.76019
O           4.49119         4.08657         0.65320
C           2.61672         2.60502         0.96188
H           0.78903        -0.72996        -0.38849
H           0.73985         0.88460        -0.46531
H           2.92833         0.15939        -0.91251
H           2.83616        -0.83029         0.52629
H           4.57296        -1.07136         1.39978
H           6.57994         1.05230         2.03126
H           6.85955        -1.85840         2.74613
H           8.36002         0.89609         2.79670
H           8.44880        -1.26709         4.23526
H           8.08579         1.32377         5.29489
H           6.26072         2.97903         4.38686
H           3.27522         4.18444         2.31092
H           4.43668         3.55057        -0.16717
H           2.41350         2.91480        -0.09644
H           1.61391         2.61301         1.42184

