%chk=NCC1CdCCdCNdCC2dCCdCCdCdCN21.chk
%NProcShared=20
# opt freq b3lyp/6-31g(2df,p)

Title Card Required 

0  1
N           2.09117         0.56942         0.30840
C           4.11079         1.51853         0.89039
C           6.04473         2.97703         1.74621
C           5.09301         1.46599         0.78507
C           5.75489         2.64643         1.18497
C           7.19528         2.23891         0.65919
C           7.66423         3.41252         0.95899
N           8.92672         3.32177         1.01593
C           9.20332         4.64038         1.37713
C          10.27775         4.15447         1.93858
C          11.42172         5.33117         1.40827
C          13.14418         5.40402         1.65600
C          13.65953         6.74161         2.02875
C          14.25609         6.45548         3.09146
C          12.33214         6.01116         3.23503
C          10.36258         5.26913         3.05405
N           8.36122         4.17591         2.49439
H           1.05498        -0.58828        -0.10969
H           0.82419         0.76950        -0.44403
H           3.36414         0.51232        -0.32942
H           3.32510        -0.00615         0.82335
H           4.51647         2.80650         0.69308
H           5.14618         0.39543         0.22063
H           4.55044         3.61829         1.52341
H           7.26911         1.26154         0.56285
H           6.87521         4.43513         1.65602
H           8.94691         5.83431         1.98430
H          10.82636         6.62272         1.96061
H          13.77368         4.62386         1.89940
H          13.18711         7.95128         2.62811
H          15.71432         5.96068         2.41093
H          11.77698         6.38331         3.27384

