%chk=NdC1NCdCCqOrdc2ccncc2dNC1N.chk
%NProcShared=20
# opt freq b3lyp/6-31g(2df,p)

Title Card Required 

0  1
N           1.05179        -0.32779         0.20074
C           2.26221        -0.81370         0.04978
N           3.08136        -1.39422        -0.85450
C           4.76004        -0.79681        -0.84132
C           5.72293        -1.64341        -0.63705
C           6.97035        -1.98115        -0.12003
O           7.86219        -1.01791         0.00792
C           7.26642        -3.22804        -0.03796
C           8.73776        -3.60777        -0.12883
C           9.25181        -4.76993        -0.50653
N           8.24762        -5.71333        -0.52156
C           6.78849        -5.40694        -0.19317
C           5.67068        -3.73539         0.24223
N           4.35586        -2.70261         0.63884
C           3.50036        -0.74672         0.96388
N           2.92532         1.04476         0.43823
H           0.40290        -1.05460        -0.08172
H           2.89302        -2.31700        -0.27301
H           5.31672        -0.07518        -0.12483
H           4.97957        -2.26500        -1.02949
H           7.22623        -0.30184         0.07354
H           9.44572        -2.80369         0.04637
H          10.40118        -4.87944        -0.68957
H           6.62292        -6.56298        -0.12881
H           4.11676         0.21942         0.57523
H           1.84241         1.20228         0.40221
H           2.96295         1.82484        -0.37818

