%chk=Ndc1cncccc2nc3ccqCOrcc-3cnc2c[nH]1.chk
%NProcShared=20
# opt freq b3lyp/6-31g(2df,p)

Title Card Required 

0  1
N           2.54248        -0.38141        -0.04095
C           3.70639         0.25782        -0.04812
C           3.32915         1.67833        -0.07075
N           4.49988         2.11027        -0.08480
C           4.83755         3.32452        -0.09257
C           6.12269         3.22941        -0.09762
C           7.17051         4.06039        -0.09579
C           8.35388         3.45382        -0.08622
N           9.28810         4.54498        -0.10408
C          10.56351         4.69008        -0.10447
C          11.45346         5.97378        -0.12071
C          12.73928         5.56005        -0.10968
C          14.05038         6.37623        -0.11033
O          13.81435         7.78496        -0.12497
C          12.69332         4.09107        -0.09035
C          11.43787         3.55073        -0.08962
C          10.88959         2.10315        -0.08249
N           9.77959         1.35298        -0.07403
C           8.33419         1.68846        -0.06462
C           7.13635         0.50347        -0.04841
N           5.41440        -0.10025        -0.04066
H           1.67578         0.27704        -0.05157
H           2.35989         2.16547        -0.07175
H           4.18992         4.14022        -0.08813
H           6.39724         2.22435        -0.12220
H           6.94645         5.10596        -0.11045
H          11.15887         7.02072        -0.12895
H          14.68886         6.15564        -0.97883
H          14.66737         6.18071         0.77913
H          13.32061         7.98911        -0.93583
H          13.63553         3.55449        -0.07771
H          11.80801         1.48905        -0.08892
H           7.63864        -0.47789        -0.04320
H           5.37363        -1.13311        -0.03207

