%chk=Ndc1cccccc2cc3nccc-3c-2n[nH]ccnccc1.chk
%NProcShared=20
# opt freq b3lyp/6-31g(2df,p)

Title Card Required 

0  1
N           2.12915        -0.93267        -0.62155
C           3.51710        -0.81366        -0.52822
C           3.52453         0.48815         0.49309
C           4.73577         0.92584         0.83644
C           5.17995         1.99549         1.67555
C           6.51760         2.07897         1.74097
C           7.31502         3.02018         2.47952
C           8.66240         3.10296         2.54432
C           9.26193         4.12692         3.34874
C          10.57884         4.08869         3.31828
N          11.43579         4.91958         3.96957
C          12.58831         4.46881         3.60906
C          12.50656         3.28062         2.67274
C          11.17217         3.03403         2.48572
C           9.78195         2.23875         1.86471
N           9.24683         1.29924         1.12900
N           9.69147         0.29838         0.34356
C           8.93776        -0.61074        -0.36911
C           9.33457        -1.62409        -1.16391
N           8.21931        -2.18423        -1.60329
C           7.75000        -3.17011        -2.37451
C           6.08544        -2.69847        -2.00791
C           4.75910        -1.91256        -1.39007
H           1.57980        -0.21082        -0.05525
H           2.65969         1.04845         0.93265
H           5.43008         0.29158         0.33888
H           4.53776         2.68868         2.21942
H           7.04132         1.33249         1.15543
H           6.73319         3.74414         3.04777
H           8.74031         4.86375         3.92690
H          13.54304         4.92512         3.96382
H          13.46030         2.88899         2.35648
H          10.67117         0.14091         0.22060
H           7.82662        -0.56270        -0.33133
H          10.38822        -1.87018        -1.35706
H           8.85617        -3.46155        -2.60682
H           5.95919        -3.59487        -2.71005
H           3.88546        -2.45445        -1.81538

