%chk=NdCC1dCCdCNdCSNdC2SC2NC1.chk
%NProcShared=20
# opt freq b3lyp/6-31g(2df,p)

Title Card Required 

0  1
N           1.60188         0.05389        -0.66324
C           3.15690         0.08229        -1.10475
C           4.75053         0.17650        -2.48461
C           4.77541         0.64677        -1.21739
C           5.57571         1.62114        -1.73758
C           6.88515         1.50161        -1.78299
N           7.40632         2.37144        -2.70612
C           8.64451         2.26269        -2.98783
S           9.18412         3.53134        -4.37403
N          10.87761         2.99490        -4.04507
C          11.13637         3.22094        -5.24855
S          11.70111         2.95859        -6.71192
C          10.42924         1.67033        -5.42426
N           8.38126         1.06950        -4.79110
C           6.47858         0.71951        -3.83719
H           0.93878        -0.29637         0.43692
H           3.16894        -0.30321         0.22974
H           5.07918         0.08854        -0.29842
H           5.29393         2.21704        -2.62423
H           7.27261         0.58281        -1.35667
H           9.22363         1.34535        -2.60419
H          11.91356         1.80590        -5.10377
H           9.61355         0.80243        -4.43110
H           5.21935         0.48648        -4.24427
H           5.39442         1.51480        -4.15339

