%chk=NN1CCCdc2ccccc2dCCdCN1.chk
%NProcShared=20
# opt freq b3lyp/6-31g(2df,p)

Title Card Required 

0  1
N           1.17153         0.19821        -0.23789
N           2.52838        -0.23566        -0.12601
C           2.59800        -0.86965         1.25274
C           4.02513        -1.13617         1.58907
C           4.89387        -1.79303         2.56366
C           6.25673        -1.70222         2.50886
C           6.85727        -2.35987         3.68632
C           8.16619        -2.28980         3.94547
C           9.08027        -1.69099         3.00636
C           8.68153        -1.16895         1.83239
C           7.24453        -1.02268         1.46425
C           7.03509        -0.27796         0.30911
C           5.73246         0.20633        -0.10927
C           4.77728         0.74360        -0.86618
N           3.40948         0.88001        -0.44237
H           0.56759        -0.62879        -0.21338
H           1.00175         0.62146        -1.14694
H           2.05991        -1.82228         1.22889
H           2.13869        -0.23448         2.02479
H           4.21804        -0.11441         1.94223
H           4.40082        -1.57696         0.66082
H           4.37426        -2.28332         3.38222
H           6.21360        -2.90056         4.37643
H           8.56329        -2.74703         4.84639
H          10.13227        -1.73405         3.26919
H           9.43917        -0.80889         1.14370
H           7.87914         0.09603        -0.27084
H           5.34345         0.21197         0.85512
H           4.92597         1.17254        -1.85937
H           3.22061         1.73825         0.07600

