%chk=NNC1dNCdCCdCdCqNr[N]N1.chk
%NProcShared=20
# opt freq b3lyp/6-31g(2df,p)

Title Card Required 

0  2
N           1.55943         0.39536         0.11195
N           3.15620         0.79160        -0.44644
C           4.32535         1.37474         0.40786
N           4.71471         0.53761         1.34534
C           5.40207         1.26432         2.25752
C           6.70810         1.42044         2.35135
C           7.12424         2.72884         3.00385
C           8.08073         3.26576         2.45926
C           8.40264         3.08471         1.18054
N           9.68619         2.23685         1.28925
N           7.16433         2.85782         0.17483
N           5.17028         2.75926         0.20578
H           1.25763        -0.53727        -0.27995
H           0.88004         0.96896        -0.41585
H           3.45073        -0.20257        -0.36050
H           4.84981         2.12016         2.63855
H           7.25761         1.01809         1.45454
H           6.36535         3.52414         2.95684
H           9.61455         1.62255         2.13824
H          10.51134         2.73934         1.69324
H           4.81018         3.42132         0.91547

