%chk=NNC1dCNdc2cc[nH]cccnc2dCNdC1N.chk
%NProcShared=20
# opt freq b3lyp/6-31g(2df,p)

Title Card Required 

0  1
N           1.03596         0.03348         0.00752
N           2.40952         0.05512        -0.09232
C           3.02380        -0.17309         1.05415
C           4.29172        -0.26782         1.51855
N           5.66822        -0.53132         2.89511
C           7.30250        -0.48597         2.64919
C           7.35739        -0.73900         4.00258
C           8.54870        -0.80074         4.34184
N           9.01884        -1.04229         5.43636
C          10.24887        -0.91421         4.91486
C          11.05147        -1.11171         5.95091
C          12.09305        -0.95496         5.07375
N          11.35426        -0.73152         3.60997
C           9.33823        -0.45905         2.46363
C           7.88333        -0.29579         1.32435
N           5.90999        -0.19084         1.17074
C           4.16534        -0.34373         1.96225
N           2.22947        -0.42394         2.39706
H           0.68694         0.22191        -0.91329
H           0.73380         0.79225         0.63323
H           2.99827         0.20251        -0.88488
H           4.49131        -0.01373         0.23616
H           6.68841        -0.88957         4.75251
H           9.46394        -0.63295         3.84068
H           8.82559        -1.19362         6.36946
H          10.35808        -0.52263         3.10435
H          11.03144        -1.32603         7.01063
H          13.38840        -0.98592         5.27008
H           6.74231        -0.03469         0.57921
H           1.22069        -0.58658         3.20284
H           1.05617        -0.35012         1.76740

