%chk=NNCCSC1dNCdCNdNCdCCdC2CdC21.chk
%NProcShared=20
# opt freq b3lyp/6-31g(2df,p)

Title Card Required 

0  1
N           1.08021        -0.05862         0.00540
N           2.55135        -0.06303         0.00368
C           3.22606         0.14289        -1.49053
C           5.32078         0.19637        -1.86286
S           7.63600         0.37182        -3.14478
C          10.06167         0.52120        -4.17990
N           8.36048         0.54204        -4.36533
C           9.58690         0.57746        -4.57953
C           9.54360         0.76221        -5.92491
N          10.74594         0.77667        -6.04189
N          11.08820         0.92232        -7.08756
C          12.22059         0.86141        -6.68598
C          13.36056         1.02531        -7.83067
C          14.66805         0.95896        -7.34869
C          13.76283         0.85360        -6.57259
C          14.39803         0.75113        -5.67729
C          12.33201         0.62464        -4.92345
H           0.72420        -0.19963         0.96425
H           0.71725        -0.82608        -0.56475
H           2.85515        -0.96167         0.37735
H           2.65436         1.07743        -1.75382
H           2.65456        -0.68214        -1.99981
H           5.01270        -0.80162        -1.07398
H           5.01252         0.93982        -0.83124
H          10.04353         0.34216        -2.89969
H           8.86453         0.85576        -6.60754
H          13.35131         0.63517        -5.26084
H          13.30521         1.16826        -8.85295
H          15.77738         0.75999        -5.92227
H          15.85939         0.89824        -6.91263

