%chk=NNCC[N]C1dCCdCCdCNdCCdC2CdCNdCN21.chk
%NProcShared=20
# opt freq b3lyp/6-31g(2df,p)

Title Card Required 

0  2
N           1.05806        -0.04141         0.10240
N           2.61321        -0.07678         0.15179
C           3.83050        -1.15681         1.52857
C           6.07583        -1.70769         2.37792
N           8.00469        -2.55394         3.90460
C           9.96430        -3.23567         5.29420
C           8.18655        -3.25634         4.40888
C           9.47943        -3.43761         3.69248
C           8.83938        -4.44174         4.85980
C          10.86905        -4.57108         4.93457
C          10.42007        -5.04068         6.02406
N          11.49260        -5.46767         5.42138
C          12.17025        -6.09582         6.70974
C          13.92869        -5.41137         6.27160
C          13.18843        -5.85060         7.40646
C          13.41776        -7.12294         9.08106
C          14.07153        -7.73925        10.10381
N          14.59770        -6.81408         9.02856
C          13.54611        -5.55673         7.92086
N          11.85120        -4.29057         6.59981
H           0.70680         0.58288        -0.65522
H           0.70253         0.32554         0.98346
H           2.82796         0.92825         0.24615
H           2.67846        -1.91241         1.03054
H           2.67671        -0.55264         2.13369
H           5.19355        -0.31840         1.61451
H           5.21765        -1.43525         0.75629
H           6.51121        -3.30322         4.12759
H           9.25721        -2.35867         3.01879
H           7.90301        -4.40669         5.51724
H          11.22165        -3.44269         4.18075
H           9.87054        -5.31285         6.69417
H          11.70088        -6.25354         7.81192
H          14.94008        -5.31619         6.58671
H          12.51344        -7.00774         8.96249
H          13.31910        -8.13592        10.84921
H          15.17249        -6.47872         8.46927

