%chk=NOC1dC2CdCCdCC1dCNdNCdC2.chk
%NProcShared=20
# opt freq b3lyp/6-31g(2df,p)

Title Card Required 

0  1
N           0.69303         0.34211         0.85406
O           1.97470        -0.20876         1.18451
C           2.46405        -1.47093         0.89290
C           2.28710        -2.77383         0.38219
C           1.19849        -3.02654        -0.51365
C           0.98607        -1.90595        -1.26102
C           2.18293        -1.05047        -1.71751
C           3.39313        -0.66262        -1.08175
C           3.74614        -1.11409         0.39727
C           4.56223        -1.26064         1.51312
N           4.16978        -2.11414         2.61153
N           4.04501        -3.38082         2.49191
C           4.27934        -3.96462         1.25741
C           3.54476        -3.66019         0.20547
H           0.73276         0.65360        -0.11862
H           0.08254        -0.43350         1.02280
H           1.44737        -3.91679        -1.09861
H           0.18136        -1.34165        -0.78111
H           1.87770        -0.77406        -2.72996
H           4.05867         0.01952        -1.60085
H           5.53198        -0.86787         1.74496
H           5.16879        -4.60066         1.20276
H           3.93655        -3.86948        -0.81174

