%chk=NOc1cccc2cc3ccccc3c-2c1.chk
%NProcShared=20
# opt freq b3lyp/6-31g(2df,p)

Title Card Required 

0  1
N           1.09961        -0.28799         0.35653
O           2.59956        -0.68005         0.42887
C           3.71687        -0.99906         1.53768
C           4.78940        -0.16594         1.12591
C           5.55497         0.02050         2.19725
C           6.86754        -0.51550         2.24059
C           6.94184        -1.34037         3.31453
C           6.40717        -1.65219         4.87424
C           7.18122        -2.65928         5.30306
C           7.50167        -3.48391         6.47651
C           8.76983        -3.79390         6.82017
C           9.75940        -3.32104         5.87224
C           9.32288        -2.86487         4.57285
C           7.57254        -3.04028         3.97117
C           6.25293        -2.54624         2.91712
C           4.43137        -2.17064         2.47866
H           0.90990         0.17054        -0.59695
H           0.83245         0.51792         0.93510
H           5.01867        -0.16296         0.06849
H           5.09311        -0.21140         3.18720
H           7.41486        -0.59609         1.26899
H           5.43092        -2.19702         5.01770
H           6.69340        -3.83638         7.07123
H           9.03649        -4.31574         7.76316
H          10.78869        -3.37943         6.36531
H          10.26145        -2.33241         4.21535
H           3.42739        -2.09521         3.14714

