%chk=NtCC1dCNdNNdCCdCC12CdCNdCqOrCCO2.chk
%NProcShared=20
# opt freq b3lyp/6-31g(2df,p)

Title Card Required 

0  1
N           1.06161        -0.05225        -0.05894
C           2.32257        -0.05225        -0.05894
C           3.84257        -0.05225        -0.05894
C           4.07934        -0.97233        -1.12484
N           5.25598        -1.60923        -1.32311
N           5.80192        -1.99096        -2.36498
N           6.89154        -2.53363        -1.73967
C           8.01617        -2.58378        -2.35871
C           8.95019        -1.43001        -1.49207
C           7.82242        -0.44923        -0.88705
C           5.84417         0.25410        -0.20251
C           6.12339        -0.22708         1.22537
C           6.55594         0.14802         2.43518
N           7.18392         1.26534         2.94884
C           6.47641         2.33303         3.11735
O           6.99415         3.44896         3.70065
C           5.08753         2.48989         2.59518
C           5.27070         2.80373         1.07020
O           5.78246         1.83621        -0.11663
H           3.40545        -1.49397        -1.77132
H           8.13325        -2.85660        -3.44145
H          10.27957        -1.56208        -1.75955
H           8.33474        -0.75880        -2.04567
H           5.55239        -1.15307         1.25598
H           6.43623        -0.65327         3.16889
H           7.91896         3.33094         3.99111
H           4.57031         3.26311         3.22190
H           4.47710         1.60178         2.73584
H           6.09483         3.52811         1.02147
H           4.42959         3.53222         0.85067

