%chk=NtCCqOrCC1dCdCCdCdNCdCCdCCdC1.chk
%NProcShared=20
# opt freq b3lyp/6-31g(2df,p)

Title Card Required 

0  1
N           1.09736        -0.01973        -0.01153
C           2.35832        -0.01973        -0.01153
C           3.87832        -0.01973        -0.01153
O           4.38809         1.28990         0.26106
C           4.94553        -1.39167         1.26621
C           6.54111        -2.60527         2.17882
C           6.14420        -1.98662         3.26333
C           6.44719        -2.73699         4.23052
C           7.92049        -1.92535         4.47213
C           8.84986        -2.51956         5.15537
N           9.51237        -3.21409         5.82609
C           8.73340        -3.92496         6.71435
C           9.30016        -4.83852         7.52193
C           8.46161        -6.01946         7.53269
C           8.87336        -6.20937         6.13748
C           8.18796        -5.12200         4.59974
C           7.77278        -3.94885         3.13737
H           4.25333        -0.35264        -0.98510
H           4.02429         1.57975         1.11678
H           4.20054        -2.12742         0.95275
H           4.31086        -0.82900         2.10965
H           6.12740        -3.86499         3.44229
H           7.99670        -0.85114         4.17018
H           7.65313        -4.23082         6.48466
H          10.41565        -5.03249         7.52595
H           7.47991        -6.47294         7.77880
H           9.69169        -6.74117         7.25613
H           7.73163        -6.03965         5.42854
H           8.21384        -2.97582         2.44662

