%chk=NtCC1[SH]dCC1dNCdCCdO.chk
%NProcShared=20
# opt freq b3lyp/6-31g(2df,p)

Title Card Required 

0  1
N           0.93560         0.01897        -0.00569
C           2.09755         0.03136         0.05218
C           3.53017         0.06059         0.16911
S           4.34804        -1.35528        -0.75760
C           4.86892         0.07330        -1.63204
C           4.21282         1.06190        -0.75813
N           4.30020         2.35140        -0.82526
C           3.62304         3.10585         0.11672
C           3.62028         4.44888         0.10944
C           2.89384         5.25702         1.12234
O           2.91164         6.48278         1.10098
H           3.89879         0.11383         1.19669
H           3.34912        -1.76718        -1.51183
H           5.47570         0.28813        -2.51586
H           3.06631         2.60042         0.90292
H           4.15030         5.02467        -0.63899
H           2.33948         4.70606         1.90028

