%chk=OC1dCdCCdCCdCNdCCdc2ccccc2dC1O.chk
%NProcShared=20
# opt freq b3lyp/6-31g(2df,p)

Title Card Required 

0  1
O           2.90379        -0.97707         0.78629
C           4.84890        -1.36966         1.61864
C           3.45784        -0.34188         1.55393
C           3.79361        -0.89245         2.58375
C           4.02497        -2.45732         2.79439
C           4.89575        -2.66715         3.75305
C           5.62838        -4.03684         3.42205
C           6.15029        -4.52803         4.53239
N           7.10553        -5.65426         4.02966
C           7.77417        -6.04755         5.04696
C           8.90442        -6.93232         4.90458
C           9.10092        -5.48304         4.89900
C          10.15861        -7.19427         5.69729
C          10.77273        -8.12347         7.01354
C           9.96304        -6.29442         6.88988
C           9.15019        -4.83348         5.73950
C           7.96504        -3.75236         3.96517
C           6.64156        -2.55731         2.67107
O           5.77300        -1.66760         0.95526
H           1.46764        -0.46064         0.80023
H           3.66002        -0.17802         3.28310
H           4.52421        -2.98268         1.49887
H           5.24347        -1.80895         4.32899
H           6.21723        -4.29033         2.34220
H           6.57910        -3.57577         5.28309
H           7.59545        -5.10928         6.19861
H           9.33076        -7.48521         4.09975
H          10.82014        -8.53346         5.37362
H          11.55041        -9.51063         7.45006
H          10.64596        -7.23955         8.13314
H           9.62592        -5.37828         7.19608
H           4.80287        -0.90444         0.05397

