%chk=OCC1CC2dCNdCCdNC2dCCdC2C3CN2C13.chk
%NProcShared=20
# opt freq b3lyp/6-31g(2df,p)

Title Card Required 

0  1
O           2.00818         0.16441        -0.03278
C           3.20487        -0.68914         0.15950
C           4.70164         0.03954        -0.09440
C           4.68783         1.64315        -0.04463
C           5.21368         3.00071        -0.51724
C           4.31241         3.95911        -0.17804
N           4.27119         5.29956        -0.31890
C           5.26682         5.95128        -0.80249
C           6.57801         5.43477        -1.32045
N           7.09279         4.30612        -1.44782
C           6.43081         3.08730        -1.32303
C           6.98412         2.07520        -2.03840
C           6.27549         0.84935        -2.40919
C           6.55974        -0.47139        -2.38948
C           7.79218        -0.86835        -1.64498
C           7.36528        -2.20190        -2.27126
N           6.06560        -1.58246        -1.75467
C           6.30418        -0.80539        -0.45894
H           1.20867        -0.41624         0.02560
H           3.03538        -1.38624        -0.68120
H           3.02816        -1.03503         1.17553
H           4.28238         0.03852        -1.08492
H           4.00416         1.73545        -0.92413
H           4.42920         1.83773         0.98605
H           3.37279         3.62413         0.29290
H           5.18722         7.04412        -0.81595
H           7.20351         6.29063        -1.66128
H           8.02432         2.14485        -2.33298
H           5.73728         0.91921        -1.53868
H           8.61975        -0.27868        -2.05906
H           7.89432        -3.05220        -1.82159
H           7.30267        -2.37732        -3.36153
H           7.05848        -0.53925         0.31301

