%chk=OdC1CdCdNNSCdCNSCdCCdCS1.chk
%NProcShared=20
# opt freq b3lyp/6-31g(2df,p)

Title Card Required 

0  1
O           4.72507         1.50415         2.07855
C           5.74723         1.04104         3.02572
C           4.38065        -0.25072         2.12126
C           4.73555        -0.89329         0.99013
N           5.86584        -1.02791         0.78114
N           6.57537        -0.84036         1.99521
S           8.17687        -0.59374         1.92496
C           8.80623        -0.37641         3.57152
C          10.08879        -0.04456         3.84311
N          10.63216         0.15682         5.10218
S          12.31764         0.30807         5.29624
C          12.41566         0.44348         7.19313
C          13.06763         1.60913         7.25216
C          11.25991         2.30769         6.94705
C           9.81885         2.20194         5.69697
S           7.80293         1.87239         4.40477
H           3.08592        -0.92951         1.79115
H           6.04195        -0.67680         2.87298
H           8.14843        -0.27705         4.45415
H          10.80988        -0.09009         3.05636
H           9.90066         0.41774         5.80653
H          11.47073         0.71660         7.93966
H          14.39646         1.35826         6.93649
H          12.11615         2.30731         8.16598
H          11.27266         2.28394         5.91249

