%chk=OdC1NdCNdC2CdCCdCCdC2c2ncccc21.chk
%NProcShared=20
# opt freq b3lyp/6-31g(2df,p)

Title Card Required 

0  1
O           2.09018        -0.38851         0.03953
C           3.14641        -0.71572        -0.46890
N           3.27955        -0.92177        -1.79683
C           4.17452        -0.11901        -2.20042
N           5.04727        -0.66584        -3.05315
C           6.24916        -0.88442        -2.59081
C           7.07966        -1.36522        -3.71894
C           8.38698        -1.42647        -3.94038
C           9.44086        -1.08002        -3.05101
C           9.32160        -0.65333        -1.79120
C           8.12616        -0.45754        -0.96510
C           6.78413        -0.61138        -1.18401
C           5.78783        -0.28879        -0.01783
N           6.12320         0.88081         0.60369
C           5.21013         1.40637         1.44937
C           4.11474         0.69422         1.89209
C           4.05957        -0.65806         1.61747
C           4.53418        -0.92857         0.34970
H           4.46521         0.82375        -1.68369
H           6.44920        -1.62669        -4.56973
H           8.69777        -1.73534        -4.93884
H          10.43802        -1.20163        -3.48322
H          10.27580        -0.45484        -1.29011
H           8.45421        -0.10398         0.02045
H           5.33388         2.45168         1.71327
H           3.20101         1.20982         2.18801
H           3.17911        -1.22421         1.94173

