%chk=OdC1NdCCdCCdCCdCCdCCdN1.chk
%NProcShared=20
# opt freq b3lyp/6-31g(2df,p)

Title Card Required 

0  1
O           3.93416        -0.26485         1.17214
C           5.80563        -0.39198         1.63244
N           3.78292        -0.39687         1.65016
C           5.32036        -0.22715         1.03566
C           4.96794        -0.77365         3.01435
C           6.27562        -0.79887         3.10567
C           7.03915        -1.11038         4.23355
C           8.19011        -1.03642         3.96576
C           8.40250        -1.28260         4.85711
C          10.31840        -0.91324         3.51976
C          10.05037        -1.48314         5.58321
C          11.52564        -1.42215         5.36239
C           9.56674        -1.15608         4.39904
N           7.96181        -0.69279         2.72158
H           4.26549         0.11940        -0.21912
H           4.26680        -0.92912         3.57729
H           7.16965        -0.39925         1.65877
H           6.41682        -1.29508         4.90231
H           9.20617        -0.69662         2.73545
H           8.59735        -1.57365         5.91094
H          11.46233        -1.02668         3.93051
H          10.79700        -1.86050         6.94952
H          13.11452        -1.42020         5.35532
H          11.26524        -1.41424         5.33375

