%chk=OdC1CdCCdCCdCCdCCdC2CdCCC2dC1.chk
%NProcShared=20
# opt freq b3lyp/6-31g(2df,p)

Title Card Required 

0  1
O           3.69527        -0.06163        -0.70656
C           5.35139        -0.36843        -1.54629
C           3.27359        -0.90389        -1.10485
C           4.63057        -1.23336        -1.04322
C           5.16160        -2.05648        -2.02860
C           6.46573        -2.25209        -1.85189
C           7.02485        -2.71538        -3.01148
C           8.27141        -2.86864        -2.90567
C           8.93368        -3.46443        -3.99775
C          10.24706        -3.67029        -3.68253
C          11.17651        -4.29254        -4.85789
C          11.26326        -3.07789        -4.08199
C          13.18782        -3.47948        -3.58258
C          14.15331        -3.15327        -4.40850
C          12.00981        -2.59409        -4.20941
C           9.75433        -1.67225        -3.15182
C           7.81656        -0.94845        -2.35141
H           2.43424        -1.45006        -1.67582
H           5.27442        -0.74141         0.00515
H           4.49734        -2.31723        -2.68633
H           7.71502        -1.75195        -0.99216
H           6.61105        -3.20697        -3.71038
H           8.84982        -2.06476        -1.93152
H           8.71673        -4.11760        -4.73118
H          11.18408        -2.75832        -2.68709
H          10.83982        -4.91962        -5.60545
H          13.50058        -2.95900        -2.89608
H          15.63105        -2.96402        -4.03588
H          13.33126        -3.65479        -5.00059
H          13.28665        -3.11955        -5.35650
H           6.73200        -0.33953        -1.03400

