%chk=OdC1NCdCqCNdCC2dCCdC3CdCCdC32rNN1.chk
%NProcShared=20
# opt freq b3lyp/6-31g(2df,p)

Title Card Required 

0  1
O           0.92226        -0.03979         0.07555
C           2.15655        -0.02103         0.07761
N           2.89489        -1.18410         0.07919
C           4.27218        -1.21580         0.07336
C           4.96823        -0.06367         0.06429
C           6.49599        -0.02915         0.04634
N           6.97149         1.36108         0.09352
C           8.24591         1.57455         0.05900
C           8.77658         2.92596         0.33353
C           8.06729         3.74805         1.13328
C           8.81249         4.98118         1.39038
C           9.74157         5.06126         0.41174
C           9.41199         5.76977        -0.82985
C           9.85653         5.00184        -1.83919
C          10.49708         3.78565        -1.29255
C          10.02990         3.62532        -0.02809
N           4.26890         1.13025         0.07703
N           2.87657         1.15537         0.07835
H           2.35774        -2.03981         0.07718
H           4.73401        -2.19520         0.07337
H           6.85935        -0.54291        -0.85055
H           6.85991        -0.56062         0.93484
H           8.99458         0.77324        -0.07441
H           7.06533         3.57299         1.49030
H           9.17473         4.95458         2.42479
H           8.67800         6.55824        -0.92389
H           9.57227         5.10254        -2.87601
H          11.58411         3.92456        -1.40959
H           4.82173         1.98796         0.06244
H           2.38953         2.04207         0.07664

