%chk=Odc1cccc2nnscccccc1-2.chk
%NProcShared=20
# opt freq b3lyp/6-31g(2df,p)

Title Card Required 

0  1
O           0.95836        -0.79216        -0.05962
C           2.15790        -0.97113        -0.08928
C           2.90401         0.63092        -0.18192
C           4.10735         0.84854         0.33862
C           4.81917        -0.39377         0.27336
C           4.46133        -1.72648         0.15389
N           5.53321        -2.50579        -0.04403
N           5.10651        -3.53284        -0.51585
S           6.07046        -4.81512        -0.50910
C           4.93095        -5.81545        -1.33498
C           4.97912        -7.12948        -1.11789
C           3.48585        -7.35690        -0.81610
C           3.01794        -6.33112         0.15862
C           2.79171        -4.31839         0.12477
C           3.03563        -2.69882         0.10243
H           2.36624         1.57879        -0.45577
H           4.58315         1.85627         0.54476
H           5.87455        -0.10255         0.18664
H           3.87256        -5.51706        -1.59475
H           5.92538        -7.56442        -0.70323
H           3.22885        -8.51889        -0.83541
H           3.72123        -7.14198         0.76580
H           1.70434        -4.37682         0.20100

