%chk=OdC1CdCCdCCdCdNO[N]ONOCC1.chk
%NProcShared=20
# opt freq b3lyp/6-31g(2df,p)

Title Card Required 

0  2
O           4.96526        -0.37992        -1.37627
C           5.65848         0.62056        -2.08083
C           4.02782         1.23871        -1.27756
C           4.67867         1.87134        -0.33512
C           5.22760         2.79034        -1.32783
C           6.54518         2.81920        -1.32923
C           7.33756         3.45501        -2.29823
C           8.61248         3.58734        -2.14980
N           9.76041         3.75689        -1.99057
O          10.32462         4.28658        -3.17319
N          11.67593         4.75996        -3.03087
O          12.31166         4.74755        -4.30922
N          12.69539         3.37148        -4.21852
O          11.03232         2.49966        -4.38730
C           9.75952         1.67583        -3.05556
C           7.82486         0.98354        -2.33246
H           2.90820         1.73651        -1.41705
H           5.25500         1.06343         0.20620
H           4.58581         3.10510        -2.17802
H           7.00035         2.15896        -0.59834
H           6.78635         4.08702        -2.94370
H          13.88567         3.25690        -4.35517
H          10.91374         2.28243        -2.57724
H          11.00993         1.38379        -3.54487
H           7.71856         0.73651        -1.00249
H           7.28374         0.00812        -1.63459

