%chk=OdC1c2ccccc2CdCCdCc2cnccc21.chk
%NProcShared=20
# opt freq b3lyp/6-31g(2df,p)

Title Card Required 

0  1
O           1.47862        -1.14221         0.14171
C           2.36959        -2.30583        -0.08839
C           2.69441        -0.16836        -0.58090
C           2.50079         1.74707        -0.75087
C           2.91892         2.99918        -1.88910
C           3.87836         2.66534        -2.77836
C           4.49349         1.45610        -2.51852
C           3.89445         0.32731        -1.57104
C           4.52658        -0.90635        -1.69087
C           4.21570        -1.84616        -0.87621
C           4.50188        -3.17745        -0.74613
C           4.03101        -3.91727         0.23810
C           4.28733        -5.24600         0.09795
C           5.79483        -5.84349         0.15141
N           6.20969        -7.10230        -0.09320
C           5.06820        -7.74683        -0.04135
C           3.54153        -6.53826         0.11940
C           2.80479        -4.63279         0.04234
H           1.96465         2.60555        -0.08420
H           2.43788         3.99771        -2.09067
H           4.14260         3.29158        -3.60616
H           5.41254         1.23971        -3.06266
H           5.24658        -1.20290        -2.33528
H           3.76102        -1.31186        -0.08895
H           5.19007        -3.55370        -1.41599
H           3.26479        -3.48692         1.11672
H           6.48357        -5.05118         0.31312
H           5.58714        -9.01642        -0.24248
H           3.36671        -8.09218         0.44091

