%chk=Odc1cccccqdSrcqCSSrc1.chk
%NProcShared=20
# opt freq b3lyp/6-31g(2df,p)

Title Card Required 

0  1
O           1.79464         0.04273        -0.01793
C           3.27478         0.04059        -0.03480
C           2.95766        -0.10580        -1.42064
C           4.08014        -0.15316        -1.89952
C           4.91354        -0.26399        -2.89679
C           6.40325        -0.20651        -2.31646
C           7.01831        -0.34119        -3.70663
S           6.26296        -0.51325        -5.24909
C           6.62831        -0.16605        -1.91893
C           8.25074        -0.32092        -3.39701
S          10.55202        -0.39545        -4.14374
S          12.00204        -0.62223        -6.27120
C           5.41965         0.00737        -0.27548
H           2.22470        -0.18350        -2.14999
H           4.94997        -0.10080        -1.63115
H           4.37373        -0.35378        -3.75342
H           7.55028        -0.06089        -0.98505
H           8.61122         0.26940        -4.75070
H           8.61094        -1.17457        -4.59841
H          13.49448        -0.61060        -6.16259
H           4.31085         0.13005         0.76487

