%chk=OdC1CdCCdC2CdCdCdCCdC2NCC2NdC12.chk
%NProcShared=20
# opt freq b3lyp/6-31g(2df,p)

Title Card Required 

0  1
O           2.15700        -0.20802        -0.94135
C           3.31239         0.05348        -0.59607
C           3.45754         0.61041         0.88204
C           4.73820         0.75437         1.22588
C           5.61802         1.23143         2.31129
C           7.01768         1.38274         2.51411
C           7.28563         1.82587         3.88723
C           8.45443         1.76798         4.37647
C           9.65749         1.68838         4.24151
C          10.45916         1.58786         3.26760
C           9.72469         1.64101         1.85212
C           8.36051         1.16266         1.45594
N           7.64095         0.72915         0.21845
C           7.50325        -0.23675        -0.94606
C           5.87123        -0.77950        -1.30910
N           5.32964        -0.38161        -2.52113
C           4.53292         0.24314        -1.73041
H           2.57500         0.85199         1.49565
H           5.22987         0.26164         0.44757
H           4.94855         1.49455         3.14429
H           6.50205         2.18383         4.52623
H          11.48761         1.21963         3.49789
H          10.64965         2.06424         1.35459
H           6.75384         0.53961         0.60983
H           8.01918        -1.19121        -0.77730
H           7.89766         0.28352        -1.82040
H           5.78539        -1.87195        -1.33910

