%chk=OdC1NdCCdC2CdCCdCNdC2S1.chk
%NProcShared=20
# opt freq b3lyp/6-31g(2df,p)

Title Card Required 

0  1
O           2.23414         0.71348         0.17407
C           3.12562        -0.09535        -0.08380
N           2.79616        -1.40042        -0.49990
C           3.91858        -1.94402        -0.67525
C           4.75288        -2.98814        -1.00792
C           6.03303        -2.54947        -0.86749
C           6.90971        -3.64830        -1.22048
C           8.22160        -3.79706        -1.26666
C           9.15777        -2.78814        -0.93983
C           8.93327        -1.52321        -0.53695
N           7.81044        -0.71041        -0.27957
C           6.54067        -1.05304        -0.38909
S           5.16437         0.53901         0.12026
H           4.59249        -1.23677        -0.45589
H           4.37687        -3.93751        -1.31222
H           6.38443        -4.55373        -1.51271
H           8.60283        -4.77536        -1.58194
H          10.18343        -3.16873        -1.05715
H           9.89308        -1.01846        -0.37441

