%chk=Odc1[nH]cc2nccc-2n[n+]1[O-].chk
%NProcShared=20
# opt freq b3lyp/6-31g(2df,p)

Title Card Required 

0  1
O           1.14797        -0.23440         0.21348
C           2.26910        -0.55238        -0.26076
N           3.08337        -1.54855         0.26146
C           4.53117        -1.36179         0.13143
C           5.17512        -1.70732        -0.99468
N           6.47750        -2.05093        -1.25282
C           6.34397        -2.84311        -2.27756
C           4.94584        -2.91909        -2.81390
C           4.39591        -1.85724        -2.17854
N           3.28515        -0.97085        -2.31946
N           2.93181        -0.00131        -1.39895
O           3.62851         1.02921        -1.03124
H           2.80717        -2.30390        -0.37438
H           5.00425        -0.48516         0.58692
H           7.17100        -3.37152        -2.80912
H           4.76964        -3.61545        -3.61911

