%chk=OdC1CdCC2dC1CSCCdC2CS.chk
%NProcShared=20
# opt freq b3lyp/6-31g(2df,p)

Title Card Required 

0  1
O           2.32906        -0.50396        -2.63429
C           3.10018        -1.19363        -2.04511
C           3.01905        -1.29945        -0.55611
C           4.32426        -1.00256        -0.47864
C           5.09880        -1.83756        -1.35718
C           4.36058        -1.96261        -2.46976
C           4.42004        -2.92130        -3.60084
S           5.75624        -4.18633        -3.64634
C           7.27250        -3.31865        -3.12326
C           7.22637        -3.09407        -1.64889
C           6.24351        -2.58171        -0.87470
C           6.39492        -2.86506         0.62480
S           5.05878        -2.65303         1.83261
H           2.65380        -2.34459        -0.50398
H           4.71774        -0.02462        -0.22372
H           4.39167        -2.44106        -4.58102
H           3.51608        -3.53911        -3.51839
H           7.55339        -2.45202        -3.72781
H           8.09306        -4.04348        -3.28379
H           8.08888        -3.52654        -1.13276
H           7.25601        -2.30861         0.99330
H           6.58587        -3.93965         0.71118
H           4.85236        -1.33357         1.66793

