%chk=OdC1CdCC2dCNdC[CH]C1dCS2.chk
%NProcShared=20
# opt freq b3lyp/6-31g(2df,p)

Title Card Required 

0  2
O           1.25971         0.32977        -0.08723
C           2.41500        -0.02968        -0.15166
C           2.75166        -1.46317         0.09448
C           3.98782        -1.92182         0.32937
C           5.16359        -1.07492         0.45141
C           6.05297        -1.21249        -0.54742
N           6.65812        -0.18045        -1.19781
C           5.83808         0.61368        -1.82851
C           4.29102         0.82017        -1.80013
C           3.53416         0.92441        -0.53242
C           4.25850         1.45670         0.46143
S           5.10038         0.33655         1.52979
H           1.90526        -2.14203         0.03261
H           4.15571        -2.99145         0.25005
H           6.09579        -2.12684        -1.14437
H           6.35337         1.24033        -2.56995
H           3.96803         1.64124        -2.43759
H           4.88863         2.30336         0.17172

