%chk=OdC1Cc2ccccccqc3cc2CdC3rCqCOrdNN1.chk
%NProcShared=20
# opt freq b3lyp/6-31g(2df,p)

Title Card Required 

0  1
O           2.92749         0.19856         0.06366
C           4.54310         0.23562         0.06171
C           5.38280         1.27967         0.77472
C           7.76993         1.13733         1.22133
C           5.90595         2.04302         1.18720
C           7.22556         1.75233         1.11664
C           7.39797         3.01080         1.66636
C           8.55930         2.51331         1.88100
C           9.98162         3.44996         1.95148
C          11.34335         3.21263         1.75363
C          11.95510         1.59077         0.85619
C          11.15072         0.66656         0.35262
C           9.88351         1.34921         0.99867
C          12.12907         1.92479         1.04647
C          13.42443         1.43224         0.75454
C           9.97413         3.13233         1.26687
C          11.41477         4.59801         2.46157
O          10.49533         5.50102         2.94280
N           8.49927         2.23620         0.11085
N           6.52480         0.89404        -0.13309
H           3.86653         1.22862         1.37810
H           3.88500         1.83854         0.27820
H           5.15980         2.82849         1.53591
H           7.70687         0.28105         0.12070
H           7.25427         3.82964         2.07012
H           8.84201         1.01222         0.89921
H           9.52084         4.26181         2.43063
H          10.31626         0.20796         0.08114
H          13.38630         2.91463         1.58180
H          13.88417         0.61211         0.31184
H          12.26115         5.92646         2.29396
H          12.25561         5.12273         3.74660
H          10.27111         5.44965         1.98214
H           5.55206        -0.28068        -0.23354

