%chk=OdC1CdNCdCCdNCdCSCCCON1.chk
%NProcShared=20
# opt freq b3lyp/6-31g(2df,p)

Title Card Required 

0  1
O           4.24727        -0.30105         0.03414
C           5.84288        -1.10008        -0.06987
C           3.65611        -1.28417        -0.09403
N           4.66456        -1.90026        -0.17307
C           5.15683        -2.92823        -0.30603
C           6.42533        -3.04448        -0.32099
C           7.21092        -4.10118        -0.45793
N           8.44162        -4.30258        -0.48399
C           9.11096        -5.27040        -0.60925
C          10.35130        -5.27765        -0.61019
S          11.29018        -6.87546        -0.81699
C          12.73740        -5.90608        -0.69155
C          13.02319        -6.99644        -0.83264
C          12.09722        -4.79684        -0.54805
O          10.01656        -3.17733        -0.33885
N           8.06496        -1.86525        -0.16725
H           2.61476        -2.18029        -0.20934
H           4.47784        -3.56401        -0.38840
H           7.74666        -3.11709        -0.33096
H           6.64434        -4.86741        -0.55709
H           8.66059        -6.10393        -0.71713
H          11.06839        -3.98178        -0.44244
H          13.35897        -5.98120         0.58136
H          13.35897        -5.65466        -1.94159
H          13.76162        -7.91411        -1.83593
H          13.76162        -8.13930        -0.09605
H          13.82399        -5.12205        -0.30366
H          13.82400        -5.04914        -0.86702
H           6.81994        -0.89456        -0.04255

