%chk=Odc1ccccccc2nc-2c1NC1NNNNN1.chk
%NProcShared=20
# opt freq b3lyp/6-31g(2df,p)

Title Card Required 

0  1
O           1.86306        -0.23396         0.13708
C           3.06661        -0.74886         0.06624
C           2.83401        -1.64059        -0.84607
C           3.98328        -1.23013        -1.35656
C           5.09011        -2.08053        -1.65380
C           6.41524        -1.33045        -1.15905
C           7.65211        -2.17477        -1.46778
C           8.58072        -3.13496        -1.71351
C           7.29382        -4.16605        -1.25573
N           7.56729        -3.80205        -0.12868
C           6.02303        -3.02291         0.00353
C           4.83085        -1.48780         0.60173
N           3.92369         0.26052         0.81069
C           3.12394         2.24102         1.23994
N           4.42172         2.42711         1.43919
N           4.61155         2.10969         0.05077
N           4.59507         3.08602        -0.89881
N           3.39041         3.89173        -0.91796
N           3.05657         4.00905         0.38542
H           2.10525        -2.34438        -0.88611
H           4.67717        -0.24006        -0.85690
H           4.58503        -3.28071        -1.41632
H           7.38172        -0.94842        -0.73175
H           6.69596        -2.95640        -1.96074
H           9.42056        -2.61846        -1.09348
H           2.65032         0.79982         0.66801
H           2.69785         3.27255         2.17091
H           4.19400         1.73315         2.17224
H           3.72796         1.64581        -0.36194
H           4.69467         2.53445        -1.76265
H           2.54701         3.38459        -1.22100
H           2.40885         4.97211         0.48430

