%chk=OdC1CCSc2cqc2dOrCdN1.chk
%NProcShared=20
# opt freq b3lyp/6-31g(2df,p)

Title Card Required 

0  1
O           1.18414         0.09032         0.26398
C           2.39884         0.07437         0.10270
C           3.15671         1.14224        -0.66407
C           3.23781         0.87244        -2.15870
S           1.89393        -0.15622        -2.78124
C           2.35200        -1.63798        -2.27190
C           2.84074        -2.49129        -1.42335
C           2.86121        -2.80249        -2.94170
O           3.07894        -2.50287        -4.08572
C           3.45625        -1.96185        -0.20789
N           3.23408        -0.91922         0.53504
H           4.17337         1.18993        -0.25062
H           2.70518         2.11988        -0.47618
H           4.22115         0.46500        -2.43540
H           3.14593         1.81624        -2.70318
H           4.18127        -2.64232         0.27175

