%chk=OdC1CqOrdCCdC2CdCC1dCNNCqCOrCC2.chk
%NProcShared=20
# opt freq b3lyp/6-31g(2df,p)

Title Card Required 

0  1
O           4.66859         1.75935         1.32866
C           4.97137         2.17078         0.25742
C           3.75036         1.74697        -0.89062
O           2.56667         2.45930        -1.25072
C           4.04927         0.76407        -1.73350
C           4.95900         1.40344        -2.65034
C           6.28700         1.31755        -2.47555
C           6.81593         2.67324        -2.54478
C           7.32883         3.05783        -1.36890
C           6.77316         2.54194        -0.01510
C           7.88287         2.22737         0.79030
N           8.59036         0.95907         0.92667
N           7.92269        -0.02331         1.68338
C           7.20626        -0.98095         0.81440
C           6.06897        -1.62336         1.68771
O           6.61335        -2.51350         2.64568
C           6.49233        -0.37847        -0.38045
C           7.14978         0.31577        -1.60058
H           1.92936         1.80981        -1.66347
H           4.44396        -0.10297        -1.23934
H           4.56553         2.39036        -2.97811
H           7.06875         3.10236        -3.51336
H           8.43645         3.08652        -1.53185
H           8.02333         2.45525         1.84731
H           9.05988         0.56607         0.10437
H           7.24689         0.44047         2.30689
H           7.88789        -1.74443         0.43865
H           5.37083        -2.19395         1.06391
H           5.45557        -0.87220         2.21193
H           7.30588        -3.00856         2.17879
H           5.88130         0.30891         0.16614
H           5.85385        -1.15693        -0.78021
H           7.70628        -0.38598        -2.21122
H           7.99764         0.88562        -1.25146

