%chk=Odc1cccccccccc2cncc1-2.chk
%NProcShared=20
# opt freq b3lyp/6-31g(2df,p)

Title Card Required 

0  1
O           5.29774         1.10453        -1.18877
C           7.22067         1.53092        -1.54270
C           4.93807         1.34257        -1.40238
C           6.65396         1.10054        -1.15919
C           5.45795         2.25298        -2.31794
C           6.89166         2.42631        -2.49936
C           7.28056         3.17558        -3.24772
C           8.32646         2.89136        -2.97456
C           9.22841         3.75588        -3.82102
C          10.47391         3.80713        -3.95490
C          11.37573         4.46022        -4.81820
C          11.35496         3.64824        -3.62444
C          12.81283         4.80536        -4.80311
N          13.34378         3.93834        -3.98908
C          11.86762         2.94669        -2.92757
C           9.71524         2.39991        -2.34931
H           3.17878         1.43055        -1.50307
H           5.50499         0.16833        -0.24091
H           4.51226         2.54667        -2.61699
H           8.20947         1.27108        -1.35428
H           6.60721         3.53279        -3.59920
H           8.70578         1.87327        -1.96693
H           8.83712         4.36622        -4.43347
H          10.69604         2.69233        -3.00293
H          10.94425         5.31372        -5.21363
H          13.25142         5.92774        -5.98087
H          13.55326         3.25285        -3.31536

