%chk=OdCCCSC1dCCdCSCqdSrCdC1.chk
%NProcShared=20
# opt freq b3lyp/6-31g(2df,p)

Title Card Required 

0  1
O           1.07897        -0.06102        -0.04883
C           2.30842        -0.07285        -0.02327
C           3.12385        -0.61518         1.14848
C           4.66983        -0.50353         0.90724
S           5.95795        -1.15195         2.30820
C           8.01066        -0.96714         1.90892
C           8.38180        -1.51467         3.09189
C           9.88887        -1.57898         3.23084
C          10.42787        -2.04907         4.24650
S          11.94447        -1.49935         3.05880
C          12.70861        -2.16403         4.49488
S          12.39599        -2.86078         6.00028
C          11.62353        -1.43310         2.91564
C           9.86586        -0.91207         1.78992
H           2.87022         0.32503        -0.88294
H           2.82906        -1.65776         1.28410
H           2.82906        -0.04388         2.03107
H           4.87024         0.55337         0.74318
H           4.87025        -1.06243        -0.00468
H           7.74478        -1.88446         3.89086
H          11.06691        -0.94392         1.85875
H          10.05214        -2.42736         5.06383
H          13.32798        -1.69033         3.47142
H           9.13931        -0.47993         0.85625

