%chk=OdCC1dS2CdCSCdCCdC2SCdCCdC1.chk
%NProcShared=20
# opt freq b3lyp/6-31g(2df,p)

Title Card Required 

0  1
O           1.67718        -0.11281         0.37461
C           2.89093        -0.00090        -0.01750
C           4.12538         0.59784         0.88626
S           5.66508        -0.33717         1.51786
C           5.31063        -1.28234         2.95932
C           6.43098        -1.97240         3.20677
S           6.98852        -2.74146         4.63707
C           8.68317        -2.25864         4.25770
C           8.77152        -0.96936         4.60432
C           8.38072         0.18900         3.42193
C           7.31756         0.70816         2.39100
S           7.78231         1.78235         0.77394
C           6.56824         2.97697         0.03418
C           5.51908         2.85257        -0.84875
C           4.32500         3.00989         0.01600
C           3.88874         2.07106         0.87857
H           3.03215         0.02939        -1.10543
H           4.46116        -1.21110         3.62405
H           7.22256        -1.88584         2.45193
H           9.05212        -2.41841         3.24062
H           8.91925        -0.96177         5.73069
H           9.45246         0.52925         3.44856
H           6.74124         4.01927         0.31546
H           5.26990         3.65815        -1.63429
H           3.99054         4.06168         0.06943
H           3.09125         2.26998         1.58158

