%chk=OdCc1cc2c3nc-3nccqn1rCdCCdNCdN2.chk
%NProcShared=20
# opt freq b3lyp/6-31g(2df,p)

Title Card Required 

0  1
O           0.91320        -0.07820        -0.04057
C           2.11166        -0.11041         0.02491
C           3.22082         0.37664        -0.88465
C           4.74780         0.40326        -0.94413
C           5.82236        -0.18403         0.31576
C           6.28210         0.71320        -1.51124
N           7.17474         1.25520        -2.52957
C           7.66984         0.48820        -1.45667
N           7.55435         0.31131        -0.18919
C           7.10997        -0.74762         1.03194
C           5.12183        -0.99820         1.29338
N           3.82511        -0.24890         0.23522
C           7.26464        -1.14631         1.92914
C           7.24434        -1.70632         3.17765
C           7.79070        -2.66346         4.82326
N           6.63571        -3.09872         5.40536
C           6.22587        -2.49618         4.01335
N           5.83921        -1.24206         2.46648
H           2.53094        -0.60139         0.94684
H           5.20057        -0.02744        -0.12570
H           8.41089        -0.67403         1.00226
H           8.30304        -1.67519         2.95202
H           5.39733        -1.82942         3.44999
H           8.67380        -2.98912         5.44564
H           6.23364        -2.84920         5.56305

