%chk=OdCCqOrdC1CdCCdCCdCCdCCdCCOC1.chk
%NProcShared=20
# opt freq b3lyp/6-31g(2df,p)

Title Card Required 

0  1
O           1.30159         0.03777        -0.13670
C           2.83288         0.18122        -0.23523
C           4.68411         1.22804        -0.96320
O           2.87335         1.92508        -1.56642
C           6.73049         1.70240        -1.16891
C           5.32377         2.17408        -1.75709
C           6.58622         2.33579        -1.97049
C           7.22000         3.25225        -2.60524
C           8.40523         3.48473        -2.87517
C           8.99837         4.38379        -3.39313
C          10.18858         4.08689        -3.60280
C          10.74542         5.19294        -4.18784
C          11.77482         4.68262        -3.92194
C          12.93337         5.92182        -4.63088
C          14.74000         5.88483        -4.58045
C          13.15376         5.17661        -3.62483
O          11.28459         3.79277        -2.43985
C           9.20763         2.51973        -1.64503
H           2.90596        -0.76423         0.47280
H           1.57424         1.89306        -1.54753
H           4.65869         2.83960        -2.25798
H           7.73626         2.07721        -1.98610
H           6.69048         3.89095        -3.06039
H           9.63515         3.16759        -2.67588
H           8.76729         5.06840        -3.94591
H          10.72981         2.69021        -2.64617
H          10.94519         6.04937        -4.71306
H          13.06976         3.88123        -3.22337
H          13.02790         6.95936        -5.40994
H          15.65575         5.39857        -4.21672
H          14.18450         6.54778        -4.27706
H          14.19100         5.80208        -5.10909
H           8.22115         1.65106        -0.60804
H           8.33943         1.04069        -1.34244

