%chk=OdCC1dCCqNSrSCdCCdCCdN1.chk
%NProcShared=20
# opt freq b3lyp/6-31g(2df,p)

Title Card Required 

0  1
O           1.86085         0.39841         0.66574
C           3.27038         0.68139         0.96036
C           4.78711         1.64711         2.12922
C           4.69876         0.72080         1.10301
C           5.40070         1.44980         2.12350
N           4.75860         0.76995         3.82912
S           2.94923         1.15931         3.99094
S           7.21002         0.91748         1.52480
C           7.92105         1.61106         2.92878
C           9.20323         1.84204         2.75729
C           9.05110         2.64200         3.82779
C          10.25380         2.96192         4.05247
C           8.12576         3.30120         3.77998
N           6.50293         2.70733         3.03136
H           3.14140        -0.25846        -0.21645
H           5.08179         0.09962         0.31754
H           5.09470         3.06519         2.05929
H           5.27580         1.53993         4.29544
H           2.38519         0.50674         2.90858
H           7.14378         2.26935         4.23406
H           9.96825         1.50649         2.15456
H           8.71337         3.59953         5.16187
H          11.45698         2.55407         3.57795
H           9.76633         3.55604         4.66876

