%chk=OdCCC[SH]dS1CCCqdOrSS1.chk
%NProcShared=20
# opt freq b3lyp/6-31g(2df,p)

Title Card Required 

0  1
O           1.03132        -0.06088         0.05216
C           2.25701        -0.10439         0.10615
C           2.99678        -1.19272         0.84310
C           4.49695        -0.99165         0.73872
S           5.37340        -2.30453         1.63746
S           7.22545        -2.21104         1.51339
C           7.77952        -2.24691        -0.19982
C           7.29852        -1.13988        -1.10006
C           7.74876         0.25723        -0.73414
O           8.36080         0.96545        -1.53308
S           7.16747         0.95081         0.76792
S           7.79724        -0.40107         2.15485
H           2.86404         0.66262        -0.40724
H           2.71806        -2.15128         0.39331
H           2.68962        -1.17096         1.89120
H           4.73985        -0.01916         1.16285
H           4.71661        -0.99269        -0.32185
H           5.12531        -3.34817         0.87704
H           7.49512        -3.22147        -0.61138
H           8.87746        -2.22962        -0.17612
H           6.22745        -1.17647        -1.23455
H           7.67363        -1.33673        -2.11141

