%chk=OdCC1dCdCdCqC2dCCdNOC2rCdC1.chk
%NProcShared=20
# opt freq b3lyp/6-31g(2df,p)

Title Card Required 

0  1
O           1.26572        -0.36160        -0.45448
C           2.43533        -0.05993        -0.25569
C           3.59318        -1.00768        -0.32991
C           4.43951        -0.82317         0.62419
C           5.65478        -0.83568         0.60196
C           6.52159        -1.20162        -0.28959
C           7.59685        -2.03563         0.31506
C           8.63124        -1.52116         0.99981
C           9.27103        -2.42927         1.96970
N           8.96609        -3.65279         2.23489
O           7.90784        -4.22920         1.51111
C           7.27854        -3.49674         0.45428
C           5.72195        -1.44516        -1.59521
C           4.32939        -1.40069        -1.59660
H           2.69766         0.92549         0.17956
H           8.93541        -0.48391         1.03407
H          10.06889        -1.97682         2.58624
H           6.20778        -3.60431         0.64871
H           7.51078        -4.00890        -0.48328
H           6.19729        -0.88225        -2.41529
H           3.80268        -2.20309        -2.13348

