%chk=OdCCNNCc1ccc2c3c1ncc2dCC3.chk
%NProcShared=20
# opt freq b3lyp/6-31g(2df,p)

Title Card Required 

0  1
O           1.06058         0.05878        -0.06691
C           2.28982         0.03149        -0.05186
C           3.07953        -0.92956         0.80597
N           4.52254        -0.71119         0.60305
N           5.24605        -1.70185         1.40430
C           6.68079        -1.62634         1.06709
C           7.44811        -2.89924         1.42920
C           8.09632        -2.64323         2.79265
C           8.23712        -3.85304         3.61412
C           7.96844        -5.28410         3.13522
C           7.71498        -4.72976         2.01444
C           7.42477        -4.21914         0.81270
N           7.02289        -5.21609        -0.28935
C           6.90981        -6.49047         0.11909
C           7.24536        -6.54540         1.68115
C           6.01463        -6.23173         2.01653
C           7.41610        -6.29480         2.61979
H           2.86774         0.73471        -0.67525
H           2.80669        -1.94632         0.50373
H           2.80922        -0.76338         1.85325
H           4.76159         0.23868         0.90858
H           4.94925        -2.64932         1.16205
H           7.03815        -0.68765         1.55770
H           6.89190        -1.53299         0.01983
H           8.46126        -1.63175         3.12431
H           8.52235        -3.49512         4.67086
H           6.04345        -7.16042        -0.45289
H           5.51470        -5.56524         1.22148
H           8.80809        -6.72398         2.36279
H           7.04646        -6.81447         3.65658

