%chk=OdCOCN1CdCSCC1dCCdCS.chk
%NProcShared=20
# opt freq b3lyp/6-31g(2df,p)

Title Card Required 

0  1
O           1.13403        -0.06207        -0.05406
C           2.35739        -0.08364         0.04309
O           3.00873        -0.76285         0.99984
C           4.44364        -0.77822         0.96171
N           4.93377        -1.77355         1.95248
C           5.53194        -1.32672         3.13419
C           5.88667        -2.01589         4.22435
S           5.64281        -3.69182         4.41586
C           4.94672        -4.16184         2.84715
C           4.63248        -3.14742         1.76042
C           4.05499        -3.65922         0.64081
C           3.71850        -5.06296         0.44354
C           3.14347        -5.54454        -0.66367
S           2.75341        -7.22102        -0.85675
H           3.01516         0.46203        -0.64503
H           4.81626         0.23281         1.16932
H           4.80487        -1.05066        -0.04039
H           5.72514        -0.25597         3.15384
H           6.34315        -1.52012         5.07344
H           4.01063        -4.66937         3.10545
H           5.65081        -4.88508         2.42175
H           3.79432        -3.01436        -0.19332
H           3.93961        -5.75896         1.24710
H           2.89884        -4.88473        -1.48838
H           3.16343        -7.71876         0.32263

