%chk=OdNCdCC1dCC1dC1OC1dO.chk
%NProcShared=20
# opt freq b3lyp/6-31g(2df,p)

Title Card Required 

0  1
O           1.07681        -0.06649         0.10513
N           2.30059        -0.27140         0.13007
C           2.96255         0.85884        -0.00913
C           4.27659         1.06426        -0.03398
C           4.73443         2.37550        -0.19319
C           5.79881         3.07663        -0.27941
C           4.58143         3.81941        -0.37252
C           3.30453         4.17961        -0.41688
O           2.06616         3.56587        -0.33853
C           2.06669         4.87123        -0.50269
O           1.31689         5.76333        -0.61216
H           2.32595         1.70009        -0.11303
H           4.99157         0.25421         0.06578
H           6.84000         2.86504        -0.25731

