%chk=ONC1CdCCdC2CdCC2dC2CC2CCONC1.chk
%NProcShared=20
# opt freq b3lyp/6-31g(2df,p)

Title Card Required 

0  1
O           1.48397        -0.22397        -0.53401
N           3.17978        -0.11385        -0.89026
C           4.38253        -1.03258        -2.13036
C           5.01780        -1.24951        -0.85522
C           5.47671        -2.41595        -1.27055
C           6.88213        -2.32310        -1.39656
C           7.46777        -3.17987        -2.24108
C           6.96120        -3.96806        -3.40697
C           8.23962        -4.32145        -3.69958
C           8.81631        -3.42654        -2.63322
C          10.00876        -2.91239        -2.26846
C          10.75135        -2.06409        -1.38889
C          11.43691        -2.88075        -2.46008
C          12.09686        -2.17666        -3.56082
C          11.69144        -3.04846        -4.67151
O           9.88959        -2.37216        -4.73328
N           8.03390        -1.65099        -4.22312
C           6.11195        -1.43225        -3.46511
H           1.13104         0.41908         0.22324
H           3.24636        -0.43663         0.14831
H           3.51041        -1.88478        -1.89233
H           5.22503        -0.34479        -0.27785
H           4.88156        -2.97403        -2.11356
H           7.31916        -1.34676        -1.08874
H           6.01435        -3.99322        -4.02194
H           8.63710        -4.70752        -4.65534
H          10.83539        -2.38813        -0.37285
H          10.88015        -0.98016        -1.40821
H          11.99563        -3.79101        -2.25117
H          13.12390        -1.81173        -3.31869
H          11.65387        -1.34084        -4.04674
H          11.62983        -4.18814        -4.80211
H          12.81656        -3.77787        -4.13700
H           8.37634        -2.68855        -4.66236
H           5.34593        -2.12289        -4.00123
H           5.57234        -0.62187        -3.98638

