%chk=OOc1cnccc2ccnccccc1-2.chk
%NProcShared=20
# opt freq b3lyp/6-31g(2df,p)

Title Card Required 

0  1
O           2.73522         0.29782        -0.61448
O           4.87831         0.76391        -1.81072
C           6.97353         1.25155        -3.06229
C           5.44603         0.64704        -1.51077
N           6.22964         1.05473        -2.55714
C           8.13322         0.91570        -2.20031
C           7.94259         1.64119        -4.06234
C           8.72464         1.25697        -3.07620
C           9.20872         1.79867        -4.46651
C          10.74970         1.68430        -4.17299
N          10.23376         2.08488        -5.20111
C          12.27080         1.78336        -4.42722
C          12.14869         2.43479        -6.09917
C          13.50370         2.39085        -5.98640
C          11.48775         2.23448        -5.58507
C           9.10597         1.66947        -4.13493
H           1.40224        -0.09049         0.38215
H           5.09640         0.12560        -0.17245
H           7.22262         0.54549        -1.25015
H           6.66787         1.76325        -4.37560
H           8.76589         2.21541        -5.53613
H          11.22964         1.39608        -3.43324
H          13.44288         1.85425        -4.60918
H          12.95009         2.98998        -7.52412
H          15.27787         2.37733        -5.95171
H          13.30911         2.54544        -6.38317

