%chk=Sc1ccssc2ccccccc-2cnc1.chk
%NProcShared=20
# opt freq b3lyp/6-31g(2df,p)

Title Card Required 

0  1
S           2.90698         0.68991         0.29146
C           4.52322         0.13396         1.12324
C           4.13519        -1.16792         1.55114
C           4.91582        -2.08309         1.10851
S           5.75640        -2.87219         2.38111
S           7.48604        -2.78633         1.28795
C           8.45566        -2.99975         2.66779
C           8.95365        -4.25042         2.67794
C           9.71040        -5.02327         3.62015
C           9.27689        -5.26572         4.85887
C           8.12460        -4.60386         5.40660
C           8.03595        -3.26810         5.51624
C           8.87508        -2.19551         4.88107
C           8.47478        -1.84457         3.60153
C           8.18924        -0.34794         2.71180
N           7.27982         0.28604         1.90880
C           5.90579         0.52843         1.16096
H           1.88612        -0.24039         0.70480
H           3.17428        -1.36478         2.04763
H           5.56931        -1.77828         0.25822
H           8.63387        -4.89676         1.85303
H          10.58749        -5.53422         3.23412
H           9.80787        -5.95542         5.50985
H           7.27306        -5.23497         5.67436
H           7.13187        -2.86213         5.96753
H           9.36735        -1.65459         5.69972
H           9.21671         0.15592         2.75376
H           6.13872         1.16851         0.28285

