%chk=SCC1dCCdCCdCCdCCdCCdCCdCCdC1.chk
%NProcShared=20
# opt freq b3lyp/6-31g(2df,p)

Title Card Required 

0  1
S           1.81676        -0.50411         0.09179
C           4.29659        -2.10263         0.15572
C           5.98890        -4.44747         0.24950
C           5.27391        -2.44495         0.16941
C           5.27945        -3.51782         0.21232
C           6.96787        -3.17834         0.19874
C           7.53779        -4.58198         0.25488
C           8.60493        -4.93834         0.26913
C           9.41587        -6.24071         0.32122
C          10.44438        -6.45470         0.32978
C          10.91286        -7.39648         0.36744
C          12.05934        -7.74844         0.38152
C          12.10902        -8.73339         0.42091
C          13.63045        -9.69866         0.45952
C          14.08047       -11.16826         0.51829
C          12.42030       -10.01029         0.47198
C          10.01832        -8.35615         0.40583
C           8.01151        -6.68859         0.33913
H           0.67573         1.20517         0.02343
H           3.56625        -0.28242         0.69635
H           3.56625        -0.33141        -0.52855
H           5.45248        -0.93805         0.10915
H           4.32248        -4.11010         0.23601
H           7.34513        -2.41700         0.16829
H           7.27926        -5.44949         0.28958
H           9.13639        -4.21219         0.24009
H           8.65668        -7.71889         0.38034
H          10.99417        -5.85296         0.30571
H           9.10514        -8.67063         0.41840
H          12.88493        -7.54729         0.37348
H          11.42015       -10.70080         0.49960
H          14.65327        -9.23262         0.44088
H          13.62040       -12.43183         0.56883
H          14.47222       -10.57022         0.49438
H          11.38405        -9.71834         0.46031
H           6.28067        -5.98937         0.31117

