%chk=SCC1dCCdCCdCCdC2CdCCdC1C2.chk
%NProcShared=20
# opt freq b3lyp/6-31g(2df,p)

Title Card Required 

0  1
S           2.38735         0.53134        -0.46344
C           4.69881         1.43835        -1.48887
C           6.50836         2.13438        -2.93236
C           5.70738         1.47638        -1.51964
C           6.03393         2.65310        -2.17291
C           7.72689         2.61095        -1.91783
C           6.98992         3.77544        -3.44491
C           7.89570         4.06223        -2.51345
C           7.95372         4.91856        -4.21161
C           9.21075         5.15305        -3.85370
C          10.87634         4.09566        -3.49841
C          12.30763         4.24600        -3.91071
C          10.49995         3.93272        -4.23425
C           8.68788         3.15425        -3.91899
C           9.78829         4.82491        -4.95635
H           1.07977        -0.53008         0.60283
H           3.99074         0.08841        -0.83038
H           4.01633         0.92258        -0.00527
H           5.75129         0.65037        -0.48930
H           4.69046         2.92302        -2.63666
H           7.43406         1.60844        -1.39923
H           6.11671         4.24905        -3.83809
H           9.13325         2.96109        -2.40873
H           8.04331         5.54691        -5.13071
H          10.78890         3.20824        -2.87210
H          13.10122         3.67468        -3.40163
H          11.97875         4.84356        -4.65174
H          10.16739         5.43437        -6.26951
H          10.26328         6.45352        -4.91949

