%chk=SdC1SCdCCdc2ccccc2d[SH]S1.chk
%NProcShared=20
# opt freq b3lyp/6-31g(2df,p)

Title Card Required 

0  1
S           1.74793         0.61956         0.05800
C           3.23730         1.05621         0.79595
S           4.02765        -0.20902         1.71669
C           5.57990        -0.04006         0.98259
C           6.47182         0.60665         1.68140
C           7.78213         1.00306         1.24813
C           8.45483         1.95342         1.84811
C           9.92464         1.85216         1.87269
C          10.68640         2.45186         2.78570
C          10.08810         3.43479         3.66527
C           8.76366         3.78332         3.60396
C           7.74878         3.02728         2.62971
S           5.61183         3.28399         2.54817
S           4.30469         2.70404         0.62961
H           5.73747        -0.27860        -0.06961
H           6.18229         0.93321         2.68529
H           8.28177         0.33197         0.55803
H          10.39432         1.15937         1.17987
H          11.76619         2.25153         2.83299
H          10.84030         3.92021         4.30630
H           8.47470         4.62394         4.22706
H           5.60926         4.59193         2.43668

