%chk=SdC1CdCCdCCdCCdCCdCCdCCdCS1.chk
%NProcShared=20
# opt freq b3lyp/6-31g(2df,p)

Title Card Required 

0  1
S           4.14612         0.52067        -0.66920
C           6.68887         1.06218        -1.31296
C           4.38904         1.06209        -1.31285
C           5.76802         1.00166        -1.24101
C           5.47639         1.95615        -2.37574
C           6.85701         2.10814        -2.55642
C           7.56141         2.74732        -3.31629
C           8.77989         3.05333        -3.68008
C           9.47966         3.63797        -4.37511
C          10.57220         3.49561        -4.20588
C          11.01759         4.31233        -5.17681
C          12.15541         4.25407        -5.10755
C          13.33722         5.03238        -6.03282
C          15.00459         4.86603        -5.83506
C          13.64527         4.15629        -4.99131
C          11.98292         3.11858        -3.75765
S           9.51573         1.94755        -2.36551
H           2.87030         1.46681        -1.79399
H           5.53758         0.06254        -0.12457
H           4.71815         2.35690        -2.85216
H           7.83560         1.43619        -1.75759
H           6.89105         3.16866        -3.81719
H          10.32562         2.64363        -3.19302
H           9.00907         4.08349        -4.90476
H          11.39265         2.45521        -2.96903
H          11.11431         4.92907        -5.91001
H          13.29664         3.26611        -3.93304
H          13.23098         5.73176        -6.86426
H          15.87747         4.22412        -5.07194
H          14.58271         5.25793        -6.30096
H          13.57510         3.87987        -4.66269

