%chk=SdCN1CdCCdCCdCCdCCdCCdCCdCCdC2CdC21.chk
%NProcShared=20
# opt freq b3lyp/6-31g(2df,p)

Title Card Required 

0  1
S           4.10116         0.76766        -1.28129
C           6.57469         1.37193        -2.42343
N           9.01922         2.15802        -4.01765
C           7.11550         1.38590        -2.48153
C           5.79517         1.90045        -3.41381
C           7.83756         1.25031        -2.39434
C           8.75824         1.57167        -2.51690
C          10.01441         1.70370        -3.04793
C          10.35928         2.39700        -4.35406
C          11.51720         2.22555        -4.00233
C          12.83564         2.69224        -4.79952
C          13.82448         2.51332        -4.93096
C          14.08208         3.36212        -5.30939
C          16.26294         3.30504        -5.60710
C          15.76893         3.03078        -6.49666
C          17.61565         3.80051        -6.99210
C          17.69352         4.77925        -8.49057
C          16.76889         4.19558        -6.91190
C          14.32044         3.91420        -6.45953
C          13.67391         2.92613        -6.79639
C          11.55929         2.86545        -5.39785
H           4.96210         0.62482        -1.01104
H           5.98733         0.60541        -0.96822
H           4.91264         1.67259        -2.98429
H           7.66351         0.75847        -1.25351
H           7.49807         2.11912        -3.79755
H           9.86712         1.29314        -2.30994
H           9.56930         2.91038        -5.32668
H          11.99929         1.88394        -3.38794
H          11.80747         3.50744        -6.35755
H          14.27794         2.42032        -4.38630
H          13.35847         4.12893        -7.09479
H          16.51321         2.79454        -5.15475
H          15.68540         4.34110        -7.75022
H          18.66310         3.45871        -6.44059
H          18.29990         4.98538        -9.28223
H          18.98434         4.14766        -7.32008
H          15.71590         3.28916        -7.66221

