%chk=C1CCCNN2CCCC2CCC1.chk
%NProcShared=20
# opt freq b3lyp/6-31g(2df,p)

Title Card Required 

0  1
C           2.43001        -0.57680         0.48879
C           2.98754         0.61316        -0.26382
C           2.30364         1.88768         0.20478
C           0.91626         1.99064        -0.45203
N          -0.06584         1.48035         0.53821
N          -1.08868         0.64332        -0.02853
C          -2.39068         1.00840         0.55912
C          -3.28792         0.09616        -0.23923
C          -2.55292        -1.18897        -0.02605
C          -1.05136        -0.83608        -0.29084
C          -0.41563        -2.21264         0.16967
C           1.05551        -2.56339         0.30275
C           1.93898        -1.63243        -0.47885
H           1.61396        -0.29016         1.16311
H           3.19661        -1.00365         1.14360
H           2.84964         0.50829        -1.34589
H           4.06618         0.67184        -0.09362
H           2.92664         2.74948        -0.05084
H           2.22274         1.89753         1.30149
H           0.86551         1.49740        -1.42088
H           0.73604         3.06342        -0.64842
H          -0.50157         2.34500         0.85011
H          -2.66465         2.05233         0.43022
H          -2.40262         0.76359         1.63076
H          -3.27853         0.35824        -1.30269
H          -4.31730         0.06874         0.12040
H          -2.91746        -2.00736        -0.65178
H          -2.68663        -1.48560         1.02908
H          -0.89536        -0.84374        -1.37665
H          -0.72883        -2.88894        -0.65115
H          -0.92562        -2.64538         1.04081
H           1.21377        -3.59206        -0.05562
H           1.32857        -2.59808         1.36579
H           1.38376        -1.19963        -1.31729
H           2.79172        -2.16528        -0.91084

