%chk=CC1CCCqN2NC2dOrCNCqCCNrCqdOrC1.chk
%NProcShared=20
# opt freq b3lyp/6-31g(2df,p)

Title Card Required 

0  1
C           1.19114        -0.09226        -0.45774
C           2.66643        -0.03979        -0.13757
C           3.11394         1.43008         0.05829
C           2.70560         2.16861         1.35404
C           1.18428         2.29150         1.60674
N           0.74382         3.65251         1.58601
N          -0.07715         4.38112         0.85147
C           0.61223         4.90305         1.86936
O           0.90484         5.83287         2.54185
C           0.80997         1.54940         2.94441
N           1.24495         0.14728         3.21690
C           0.69041        -0.88329         2.32797
C          -0.40945        -1.79353         2.85307
C          -1.04380        -2.57424         1.67629
N          -2.12223        -3.40042         2.19053
C           1.88713        -1.68986         1.69828
O           1.90823        -2.92446         1.65525
C           3.05027        -0.91795         1.07164
H           0.80641         0.58644        -1.21422
H           0.77588         0.33679         0.40415
H           0.74950        -1.08861        -0.52100
H           3.16502        -0.43337        -1.03073
H           2.74392         2.01811        -0.78862
H           4.20989         1.44282         0.00081
H           3.15804         3.16881         1.32383
H           3.19792         1.68583         2.20702
H           0.59321         1.94184         0.77399
H          -0.74342         4.46983         0.10299
H          -0.27236         1.60930         3.09346
H           1.27178         2.14417         3.74200
H           1.02020        -0.09914         4.18136
H           0.04696        -0.38655         1.62403
H          -1.19143        -1.15410         3.28669
H          -0.02556        -2.46147         3.62459
H          -0.32254        -3.21561         1.16235
H          -1.44287        -1.89570         0.90810
H          -1.72053        -4.04049         2.87588
H          -2.47561        -3.98830         1.43655
H           3.80545        -1.64461         0.73684
H           3.55602        -0.36840         1.87146

