%chk=CC1CCCCC2dCSCdCNSN21.chk
%NProcShared=20
# opt freq b3lyp/6-31g(2df,p)

Title Card Required 

0  1
C           0.97040         0.19736         0.01834
C           2.48228         0.30342         0.23223
C           3.00813        -1.03039        -0.45813
C           4.49845        -1.30475        -0.50002
C           5.07165        -0.51627        -1.65360
C           5.36245         0.96031        -1.26010
C           4.55681         1.69916        -0.10293
C           5.25280         2.06139         0.99795
S           4.63869         1.71136         2.64052
C           4.53262         3.34301         3.26424
C           3.32337         3.96790         3.07113
N           3.06827         4.36741         1.76797
S           2.32200         3.27445         0.59147
N           3.14180         1.67573        -0.10930
H           0.61824        -0.71086         0.53565
H           0.69924         0.04957        -1.03596
H           0.41353         1.03692         0.42224
H           2.68109         0.15088         1.29233
H           2.59450        -1.17342        -1.47264
H           2.57921        -1.87910         0.10087
H           4.67729        -2.38116        -0.66701
H           4.98308        -1.06879         0.45033
H           4.40824        -0.58432        -2.53042
H           5.99543        -1.01525        -1.99249
H           5.40721         1.53837        -2.19025
H           6.40333         0.89585        -0.90967
H           6.32367         2.21228         0.93336
H           5.38777         3.90639         2.93444
H           2.41936         3.65925         3.57721
H           3.63652         5.20004         1.54588

