%chk=CC1dCC2dCCdCCdCc3cocqdOrcc3C2dC1.chk
%NProcShared=20
# opt freq b3lyp/6-31g(2df,p)

Title Card Required 

0  1
C           1.24346         0.00239         0.11060
C           3.08072        -0.35055         0.41074
C           3.44096        -1.41723        -0.28212
C           5.04465        -1.71164         0.18155
C           6.03537        -1.71970        -0.65780
C           5.59910        -3.09421        -0.95203
C           6.70201        -3.76729        -0.68569
C           6.39115        -5.09185        -0.92259
C           7.52270        -5.74820        -0.63209
C           6.78465        -6.61469         0.11048
C           6.34891        -7.76892        -0.80987
O           6.08489        -9.07156        -0.67384
C           6.63642        -9.03771         0.55638
O           6.78044       -10.32931         0.73628
C           6.57057        -7.05983         1.32795
C           6.16298        -5.25577         1.30927
C           5.35774        -3.16061         1.27448
C           4.45529        -1.53404         1.21978
H           0.69636        -0.95138         0.04908
H           0.78102         0.57009        -0.81058
H           0.73075         0.57835         0.92703
H           2.78522        -2.21746        -0.03829
H           6.79992        -1.09839        -0.07624
H           4.48409        -3.50433        -0.37001
H           7.56639        -3.33171        -0.07342
H           5.30499        -5.53336        -0.38242
H           8.47662        -5.52143        -0.10915
H           5.86055        -7.60797        -1.73686
H           7.72668        -8.04191         1.23523
H           4.44561        -0.02575         0.65645

