%chk=CC1OCqCCNNqCrCOrCCCCC1dN.chk
%NProcShared=20
# opt freq b3lyp/6-31g(2df,p)

Title Card Required 

0  1
C           0.87980        -0.06938        -0.04362
C           2.40185        -0.05925        -0.03561
O           2.93934        -1.28617        -0.53677
C           4.33543        -1.50508        -0.25037
C           4.76731        -2.91560        -0.69764
C           6.27056        -3.11749        -0.44997
N           6.69450        -4.48686        -0.74185
N           8.13139        -4.66982        -0.41027
C           8.34462        -4.51553         1.04548
C           8.48566        -6.05128        -0.77715
O           9.86008        -6.30192        -0.54605
C           4.66539        -1.24438         1.23992
C           5.50091         0.02995         1.42462
C           4.74654         1.34431         1.17870
C           4.41823         1.60641        -0.29620
C           2.98614         1.22940        -0.64240
N           2.28225         1.96951        -1.45127
H           0.50788        -0.94944         0.49163
H           0.46631        -0.08252        -1.05321
H           0.50320         0.82108         0.47770
H           2.58838        -0.00534         1.03273
H           4.91400        -0.85437        -0.90847
H           4.54942        -3.04722        -1.76575
H           4.17426        -3.66753        -0.16499
H           6.46380        -2.92845         0.59998
H           6.86152        -2.38982        -1.01960
H           6.54148        -4.64405        -1.74335
H           8.16828        -3.48726         1.37890
H           9.39089        -4.70010         1.30939
H           7.70540        -5.18463         1.63272
H           8.31172        -6.21211        -1.84683
H           7.89282        -6.78945        -0.22367
H          10.30976        -5.54203        -0.94992
H           5.21702        -2.06940         1.69375
H           3.76996        -1.21833         1.86623
H           6.38941        -0.01187         0.78111
H           5.87329         0.03652         2.45586
H           5.37017         2.16621         1.54566
H           3.84713         1.37163         1.80471
H           5.09700         1.07689        -0.97023
H           4.57323         2.66671        -0.52150
H           2.80900         2.78280        -1.77721

