%chk=CC1qCrCCCCC1CCCNNCO.chk
%NProcShared=20
# opt freq b3lyp/6-31g(2df,p)

Title Card Required 

0  1
C           0.96660        -0.06433        -0.01411
C           2.51401        -0.12143         0.02099
C           2.84954         0.09393         1.51260
C           3.02082        -1.52205        -0.39165
C           2.65570        -1.87886        -1.83108
C           3.13735        -0.83020        -2.83008
C           2.70230         0.58398        -2.43619
C           3.11718         0.94290        -0.98024
C           4.66621         1.10469        -0.96725
C           5.23688         1.61087         0.34494
C           6.75354         1.59617         0.39213
N           7.12232         1.90921         1.77912
N           8.55675         1.90386         1.89701
C           8.91520         2.29143         3.25082
O          10.31840         2.32712         3.33468
H           0.54053        -0.79782         0.68090
H           0.53743        -0.28010        -0.99307
H           0.61266         0.92726         0.29115
H           2.16855        -0.46163         2.16634
H           2.77442         1.15236         1.78882
H           3.82777        -0.30846         1.78469
H           2.62498        -2.28474         0.28836
H           4.11344        -1.56800        -0.28428
H           1.56938        -1.98833        -1.91674
H           3.08346        -2.85455        -2.08455
H           2.75640        -1.07186        -3.82857
H           4.23003        -0.87526        -2.90551
H           1.61611         0.67121        -2.55417
H           3.12467         1.30683        -3.14571
H           2.68482         1.92676        -0.74943
H           4.96000         1.80672        -1.75977
H           5.15191         0.15598        -1.21641
H           4.95950         0.94083         1.13964
H           4.82302         2.59404         0.59489
H           7.16354         2.32499        -0.31322
H           7.12009         0.59571         0.12700
H           6.70039         1.19915         2.39164
H           8.95914         2.62081         1.28424
H           8.54539         1.56470         3.98370
H           8.52125         3.28195         3.50789
H          10.59156         1.45506         2.98775

