%chk=CCC1dCCdC2CdCCdC1CCC1CCCCCCdC1N2.chk
%NProcShared=20
# opt freq b3lyp/6-31g(2df,p)

Title Card Required 

0  1
C           1.02642         0.08904        -0.35280
C           2.48337         0.43997        -0.91070
C           3.26657         0.87966        -2.63386
C           4.31422         0.18105        -2.07792
C           5.46402         0.43772        -2.68905
C           5.67972         1.74634        -2.66054
C           4.79359         2.95103        -1.93271
C           3.47357         3.35420        -2.12691
C           2.77295         3.06930        -3.42478
C           3.56471         2.18075        -4.00321
C           4.93486         3.14737        -5.34213
C           6.85374         2.79729        -5.72156
C           6.90559         1.36801        -6.17164
C           7.85671         0.27227        -5.75624
C           7.14914        -1.08129        -6.01412
C           6.88569        -1.25002        -7.51703
C           5.68724        -0.47633        -8.10511
C           4.51767        -0.37242        -7.13497
C           4.66946         0.48514        -5.87111
C           5.76111         1.11191        -5.29842
N           6.08332         1.93252        -3.91354
H           0.95522        -0.29882         0.71208
H           0.55851        -0.72591        -0.90940
H           0.44555         1.00172        -0.30392
H           2.89439        -0.60070        -0.58832
H           2.97737         0.95177        -0.02838
H           4.57503        -0.30919        -1.13416
H           5.42414        -0.18377        -3.59412
H           5.38884         3.68500        -1.41173
H           2.88793         3.92195        -1.38850
H           1.71699         2.72351        -3.25371
H           5.22996         4.18630        -5.06776
H           4.72059         3.21013        -6.44063
H           7.53951         2.95710        -4.83864
H           7.57832         3.26197        -6.45580
H           6.86150         1.46108        -7.25636
H           8.09189         0.37522        -4.69395
H           8.79365         0.30022        -6.31681
H           6.21149        -1.17134        -5.45420
H           7.71874        -1.90492        -5.59059
H           6.72117        -2.31338        -7.70698
H           7.78914        -0.94945        -8.05748
H           5.37975        -0.96465        -9.03819
H           5.95061         0.52210        -8.45901
H           4.31554        -1.38771        -6.76135
H           3.61706        -0.08484        -7.69526
H           3.71951         0.44736        -5.35926
H           5.78805         2.91948        -3.88452

