%chk=CCC1dCCCCqCrC2CC1dCCdCC2CCdO.chk
%NProcShared=20
# opt freq b3lyp/6-31g(2df,p)

Title Card Required 

0  1
C           0.76819        -0.02524         0.01634
C           2.19215        -0.34766        -0.25158
C           2.54089        -1.37220        -1.39906
C           3.86950        -1.04664        -1.64113
C           5.09145        -1.75200        -2.19029
C           5.63980        -2.74040        -1.16093
C           4.53234        -3.41958        -0.35610
C           5.15377        -4.15760         0.81283
C           3.71945        -4.30936        -1.34883
C           2.97076        -3.56618        -2.49327
C           1.85857        -2.76799        -1.94784
C           0.69643        -3.50176        -2.17653
C           0.74177        -5.10463        -1.97647
C           1.80791        -5.86143        -1.61160
C           2.77991        -5.30530        -0.60483
C           3.55159        -6.45845         0.05803
C           2.70944        -7.39179         0.84862
O           3.23630        -8.27055         1.57694
H           0.68282         0.80062         0.73893
H           0.29751        -0.91228         0.42780
H           0.32424         0.29235        -0.92451
H           2.71119        -0.61072         0.69513
H           2.65079         0.64562        -0.47257
H           4.28274        -0.15986        -1.14660
H           5.87314        -1.02481        -2.42543
H           4.95810        -2.22520        -3.15858
H           6.33984        -2.24270        -0.48150
H           6.21739        -3.51472        -1.68371
H           3.89499        -2.68910         0.15541
H           5.70383        -5.02317         0.43233
H           4.34815        -4.42042         1.51219
H           5.84937        -3.57085         1.41072
H           4.43960        -4.90262        -1.91502
H           2.70051        -4.29388        -3.26510
H           3.40299        -2.86173        -3.17486
H           0.46306        -3.83109        -3.26188
H           0.00833        -5.10575        -1.17164
H           1.89737        -6.93359        -1.82715
H           2.17574        -4.78576         0.15831
H           4.21495        -6.14462         0.84956
H           4.18190        -6.96772        -0.67593
H           1.62854        -7.25477         0.83214

