%chk=CCCCOC1dCCdCCqCdNrCO1.chk
%NProcShared=20
# opt freq b3lyp/6-31g(2df,p)

Title Card Required 

0  1
C           1.06286         0.06619        -0.02640
C           2.58061         0.03555        -0.01745
C           3.11238        -1.12967         0.82594
C           4.63777        -1.15930         0.77829
O           5.17952        -2.33745         1.39062
C           6.56538        -2.33884         1.58433
C           7.20628        -1.21116         1.95212
C           8.46719        -1.08641         2.60842
C           9.50907        -1.91740         2.53224
C           9.67344        -3.08578         1.61159
C          10.75895        -2.57982         0.67009
N          11.31272        -3.26525        -0.27611
C           8.45203        -3.60222         0.82654
O           7.19847        -3.57562         1.53842
H           0.69959         0.88613        -0.65413
H           0.67004         0.21078         0.98468
H           0.66096        -0.87076        -0.42365
H           2.95839         0.99203         0.36698
H           2.94421        -0.05802        -1.04784
H           2.70697        -2.08182         0.47151
H           2.77480        -1.01440         1.86521
H           4.95380        -0.23554         1.26953
H           4.98592        -1.15296        -0.25770
H           6.67506        -0.27194         2.00175
H           8.54226        -0.22399         3.26738
H          10.36075        -1.69146         3.17085
H          10.07435        -3.90789         2.21645
H          11.12806        -1.54584         0.81667
H          10.92965        -4.21053        -0.33854
H           8.65496        -4.66585         0.61846
H           8.34586        -3.15582        -0.17203

