%chk=CCCCOC1dCCdCqCrCCqCrC1.chk
%NProcShared=20
# opt freq b3lyp/6-31g(2df,p)

Title Card Required 

0  1
C           0.91592        -0.05594        -0.04375
C           2.43314        -0.03887        -0.01830
C           2.95453         1.12758         0.82638
C           4.47603         1.10741         0.87776
O           4.98483         2.06819         1.81962
C           6.35985         2.31949         1.75000
C           7.01640         2.24965         0.57625
C           8.28009         2.80775         0.25006
C           9.34899         2.98381         1.03600
C          10.46732         3.83094         0.49208
C           9.54300         2.46240         2.42821
C           8.38493         1.95271         3.32339
C           8.93537         1.98934         4.77594
C           7.02323         2.67713         3.09497
H           0.55139        -0.90730        -0.62654
H           0.52475         0.86109        -0.49517
H           0.51574        -0.13952         0.97127
H           2.81220         0.02915        -1.04642
H           2.79874        -0.98731         0.39323
H           2.54903         1.08553         1.84100
H           2.61435         2.07758         0.39183
H           4.79366         1.28708        -0.15352
H           4.83929         0.12649         1.19643
H           6.51593         1.95158        -0.33532
H           8.32122         3.16950        -0.77737
H          10.24546         4.21383        -0.51172
H          11.39692         3.26174         0.44032
H          10.60828         4.70754         1.13418
H          10.07964         3.24378         2.98123
H          10.24713         1.62347         2.33132
H           8.21737         0.88766         3.11064
H           9.17629         3.00706         5.10590
H           9.87714         1.41910         4.82826
H           8.26025         1.53736         5.50778
H           7.13521         3.76448         3.19320
H           6.33127         2.37817         3.89745

