%chk=CCCCqCrqCCrOC1CCqSCrCS1.chk
%NProcShared=20
# opt freq b3lyp/6-31g(2df,p)

Title Card Required 

0  1
C           0.71674        -0.21082        -0.06963
C           2.22065        -0.14984        -0.02689
C           2.97785        -1.46489        -0.28646
C           4.54237        -1.30175        -0.31745
C           4.81476        -0.24108        -1.41154
C           5.09881        -0.95494         1.10068
C           4.85204         0.43196         1.66997
O           5.08392        -2.60205        -0.74432
C           6.50865        -2.79065        -0.66387
C           7.27276        -1.79861        -1.51727
C           8.72365        -2.17672        -1.62343
S           9.63565        -1.77069        -0.06221
C           9.32127         0.02706         0.10785
C           8.70511        -3.66625        -1.96523
S           7.11849        -4.35870        -1.33851
H           0.33384         0.79030         0.16680
H           0.33406        -0.90592         0.67363
H           0.36040        -0.48117        -1.06914
H           2.44864         0.20481         0.97650
H           2.50862         0.63500        -0.71876
H           2.65152        -1.88052        -1.25396
H           2.69605        -2.21890         0.45568
H           4.28982         0.69716        -1.26009
H           4.54826        -0.64586        -2.39568
H           5.82976         0.12105        -1.48166
H           6.18728        -1.05533         1.10687
H           4.74814        -1.71204         1.81664
H           5.00657         1.20883         0.91911
H           5.54185         0.62060         2.49826
H           3.86329         0.53516         2.11421
H           6.82097        -2.80214         0.38344
H           7.23469        -0.82139        -1.06821
H           6.81366        -1.72750        -2.51387
H           9.20280        -1.60405        -2.42629
H           9.82815         0.38139         1.01017
H           8.26250         0.26663         0.24495
H           9.71352         0.58307        -0.74806
H           9.56993        -4.20580        -1.57087
H           8.69228        -3.79509        -3.05359

