%chk=CCCqNrCdCC1CC2dCCdCCC2C1.chk
%NProcShared=20
# opt freq b3lyp/6-31g(2df,p)

Title Card Required 

0  1
C           0.96609         0.04720        -0.01550
C           2.48236         0.08503         0.01555
C           3.03046         1.50527         0.17279
N           2.58744         2.12971         1.42096
C           4.52875         1.45063         0.16334
C           5.28065         2.54915         0.30522
C           6.77399         2.58910         0.42861
C           7.47002         1.49068         1.26933
C           8.27036         2.22685         2.30556
C           8.94798         1.68716         3.33536
C           9.61433         2.51480         4.31088
C           9.48213         3.86405         4.29875
C           8.66609         4.59957         3.25755
C           8.25579         3.71057         2.06111
C           7.14648         3.96005         1.04618
H           0.62053        -0.97921        -0.15819
H           0.58501         0.66389        -0.83512
H           0.53791         0.41316         0.92182
H           2.86505        -0.34591        -0.91960
H           2.84935        -0.55607         0.82789
H           2.68765         2.12085        -0.66922
H           2.87798         1.54489         2.20299
H           1.57239         2.16651         1.45331
H           5.01412         0.48587         0.05969
H           4.75301         3.50277         0.35164
H           7.16468         2.52928        -0.59923
H           8.13758         0.89561         0.62964
H           6.76211         0.79508         1.73350
H           9.03294         0.61142         3.46833
H          10.21828         2.03613         5.07337
H          10.02142         4.45525         5.02878
H           9.36908         5.34323         2.85744
H           7.85732         5.15700         3.74253
H           9.09203         3.94216         1.40425
H           7.57013         4.52914         0.20591
H           6.29425         4.54729         1.40448

