%chk=CCCqCCCOCdOrC1CdCqCqCdOrCOrC1.chk
%NProcShared=20
# opt freq b3lyp/6-31g(2df,p)

Title Card Required 

0  1
C           0.93237        -0.39344         0.12431
C           2.42911        -0.14323         0.02835
C           2.89183         0.79380        -1.11618
C           2.39522         2.25307        -0.96414
C           0.89565         2.41244        -1.05821
C           0.40316         3.82955        -0.91289
O          -1.02644         3.70776        -0.91356
C          -1.73363         4.83336        -0.70298
O          -2.94652         4.87040        -0.66641
C           4.43895         0.80718        -1.10857
C           5.13122        -0.22728        -1.98527
C           5.70989         0.69389        -2.78136
C           6.56502         0.67418        -4.03893
C           5.82496        -0.09222        -5.12128
O           5.47216        -1.26612        -5.02362
C           6.88638         2.09089        -4.50250
O           7.72084         2.08216        -5.65305
C           5.11752         1.85368        -2.02497
H           0.70534        -1.21329         0.80573
H           0.49987        -0.59701        -0.86018
H           0.40978         0.43341         0.59508
H           2.91331        -1.11953        -0.09566
H           2.78356         0.25755         0.98618
H           2.53567         0.39671        -2.07757
H           2.80225         2.88276        -1.75882
H           2.77552         2.66671        -0.02323
H           0.42147         1.94996        -0.21248
H           0.49794         1.92362        -1.95650
H           0.74009         4.46366        -1.73522
H           0.74187         4.22472         0.05315
H          -1.08712         5.71579        -0.57573
H           4.83056         0.85229        -0.08108
H           5.11410        -1.31562        -1.99712
H           7.47034         0.08113        -3.86767
H           5.61348         0.46624        -6.04978
H           7.39915         2.65544        -3.71434
H           5.97395         2.64590        -4.75511
H           8.55382         1.63887        -5.41374
H           4.47180         2.47462        -2.65157
H           5.81413         2.52085        -1.50638

