%chk=CCOCCqCOrCCCOCCOO.chk
%NProcShared=20
# opt freq b3lyp/6-31g(2df,p)

Title Card Required 

0  1
C           1.01565         0.08637        -0.07567
C           2.52884         0.12697        -0.09655
O           3.01350        -0.62013         1.01502
C           4.43107        -0.74081         0.98390
C           4.90441        -1.67785         2.10519
C           4.37391        -3.11415         1.92115
O           2.95792        -3.21029         1.96110
C           6.44316        -1.65869         2.14108
C           7.02466        -2.50313         3.26999
C           8.54046        -2.47408         3.24679
O           9.00993        -3.30404         4.30476
C          10.43291        -3.33590         4.31977
C          10.92374        -4.22066         5.45152
O          12.35008        -4.21031         5.43441
O          12.75973        -5.06404         6.53598
H           0.60117         0.69343        -0.88487
H           0.63191         0.45438         0.88109
H           0.65816        -0.94282        -0.18846
H           2.88119         1.16036        -0.01507
H           2.89611        -0.30567        -1.03429
H           4.86185         0.25873         1.12282
H           4.75950        -1.12490         0.01007
H           4.51118        -1.28706         3.05304
H           4.73042        -3.76723         2.71992
H           4.71925        -3.53145         0.97053
H           2.64052        -2.59490         2.63796
H           6.79247        -0.62380         2.25726
H           6.83725        -2.01297         1.17941
H           6.71553        -3.54966         3.18665
H           6.65423        -2.15130         4.24045
H           8.90635        -1.45128         3.38638
H           8.90604        -2.86244         2.28875
H          10.82303        -2.31930         4.44765
H          10.80650        -3.71823         3.36213
H          10.55453        -5.24478         5.32335
H          10.55690        -3.84644         6.41419
H          13.71853        -4.95757         6.39688

