%chk=CCOONqCCrCCCqCrONCc1ccqCrccn1.chk
%NProcShared=20
# opt freq b3lyp/6-31g(2df,p)

Title Card Required 

0  1
C           0.96027        -0.11604        -0.07894
C           2.47393        -0.19650        -0.12839
O           2.94929         0.80223        -1.01821
O           4.24881         1.20004        -0.51578
N           4.66278         2.43246        -1.16177
C           4.16347         3.51769        -0.31510
C           2.64544         3.59907        -0.31460
C           6.12677         2.37137        -1.16199
C           6.74845         3.61847        -1.80008
C           8.27273         3.56568        -1.83018
C           8.76962         2.36357        -2.63185
O           8.72044         4.77755        -2.47053
N          10.15862         4.88219        -2.28301
C          10.57536         6.15520        -2.87684
C          12.09080         6.20129        -2.93880
C          12.74609         5.95204        -4.14832
C          14.14320         5.90445        -4.16353
C          14.88721         5.64190        -5.43798
C          14.83164         6.09562        -2.96957
C          14.10564         6.31897        -1.80961
N          12.75837         6.37974        -1.77472
H           0.53809        -1.00728         0.39302
H           0.54277        -0.00755        -1.08489
H           0.63672         0.76111         0.49314
H           2.79356        -1.15761        -0.53644
H           2.88702        -0.08178         0.88178
H           4.50606         4.47669        -0.71214
H           4.54121         3.42375         0.70941
H           2.25661         3.61646        -1.33905
H           2.32617         4.51520         0.18753
H           2.19288         2.76241         0.22174
H           6.41354         1.48565        -1.73966
H           6.52512         2.23282        -0.14760
H           6.47253         4.52462        -1.24813
H           6.35680         3.76036        -2.81593
H           8.64895         3.53637        -0.79787
H           8.43055         2.44421        -3.67011
H           8.43513         1.41494        -2.21119
H           9.86121         2.31592        -2.65413
H          10.51413         4.16622        -2.91514
H          10.20999         6.99899        -2.28299
H          10.16086         6.25352        -3.88821
H          12.17716         5.78746        -5.05501
H          14.20191         5.50677        -6.28096
H          15.48630         4.73054        -5.34430
H          15.54380         6.48600        -5.67053
H          15.91600         6.07032        -2.92843
H          14.59682         6.45489        -0.85391

