%chk=CCqNrC1dCCdCqCqdOrOOrCqCrC1.chk
%NProcShared=20
# opt freq b3lyp/6-31g(2df,p)

Title Card Required 

0  1
C           0.98579         0.00472         0.03925
C           2.52007         0.00679         0.09935
N           3.00283         1.37773         0.21130
C           2.98035        -0.86244         1.25364
C           3.60380        -0.45057         2.37419
C           3.91524        -1.34892         3.46637
C           3.62612        -2.66170         3.41459
C           3.90854        -3.53084         4.60211
O           4.49465        -3.14836         5.60903
O           3.41436        -4.78998         4.38096
O           3.87897        -5.67413         5.44515
C           3.02305        -3.28531         2.18157
C           3.98004        -4.31608         1.58355
C           2.68335        -2.31812         1.03579
H           0.61189         0.63641        -0.77090
H           0.55749         0.35370         0.98598
H           0.58249        -0.99685        -0.14842
H           2.91125        -0.41004        -0.83920
H           2.62136         1.78109         1.06456
H           2.62180         1.93406        -0.55093
H           3.86463         0.59480         2.52180
H           4.36826        -0.90148         4.34954
H           3.58511        -6.50521         5.03139
H           2.07562        -3.75656         2.48005
H           4.91054        -3.82281         1.27879
H           3.52734        -4.78216         0.70341
H           4.24547        -5.11647         2.27248
H           1.62210        -2.45921         0.81438
H           3.21421        -2.60844         0.11767

