%chk=CCqOrCOC1CdCCqOrCqdOrCOC1.chk
%NProcShared=20
# opt freq b3lyp/6-31g(2df,p)

Title Card Required 

0  1
C           1.01164         0.19661         0.12852
C           2.54565         0.31748         0.21067
O           2.93197         0.12122         1.56926
C           3.10973        -0.79486        -0.64628
O           4.50895        -1.01795        -0.74869
C           4.88678        -2.16047        -1.57577
C           5.01893        -3.44649        -0.75290
C           4.51324        -4.69154        -0.95570
C           3.60085        -5.22024        -2.06253
O           3.68144        -6.62901        -2.08411
C           2.15953        -4.71081        -1.87664
O           1.17659        -5.41540        -1.71074
C           2.10768        -3.22654        -1.74985
O           2.65997        -2.49030        -2.82545
C           4.09062        -2.30543        -2.90011
H           0.53064         0.96445         0.73559
H           0.66673        -0.77250         0.52148
H           0.64596         0.26925        -0.90322
H           2.90077         1.28723        -0.13919
H           2.72193        -0.79947         1.80933
H           2.68717        -0.64309        -1.64033
H           2.72084        -1.63991        -0.10092
H           5.92035        -1.92563        -1.87114
H           5.62026        -3.30025         0.14816
H           4.74182        -5.43318        -0.18900
H           3.92351        -4.89372        -3.04865
H           3.09503        -6.94707        -1.37546
H           2.65460        -3.13790        -0.82285
H           1.11500        -2.84008        -1.49662
H           4.24445        -1.40007        -3.49930
H           4.52142        -3.10287        -3.51282

