%chk=CdC1CqdCCCqCrOrCdC1CO.chk
%NProcShared=20
# opt freq b3lyp/6-31g(2df,p)

Title Card Required 

0  1
C           0.92195        -0.05516        -0.01756
C           2.25536        -0.05683        -0.00994
C           3.27045         0.93705         0.00813
C           3.30900         2.27291         0.02541
C           2.09213         3.15524        -0.00133
C           2.40432         4.65418        -0.03824
C           3.19365         5.04553        -1.28110
O           1.18079         5.39220        -0.01691
C           4.25064        -0.10683         0.00156
C           3.28400        -1.06088        -0.01037
C           3.28621        -2.57126        -0.01756
O           1.98159        -3.11137        -0.01278
H           0.36876         0.87525        -0.00946
H           0.36356        -0.98086        -0.04145
H           4.28765         2.74261         0.05109
H           1.46910         2.94634         0.87786
H           1.47582         2.90306        -0.87523
H           2.96340         4.93665         0.86063
H           2.62862         4.80827        -2.18909
H           4.15686         4.53008        -1.33093
H           3.38380         6.12248        -1.29083
H           0.67942         5.16880        -0.82031
H           5.33622        -0.11355         0.00390
H           3.85854        -2.94711         0.83848
H           3.84920        -2.93711        -0.88340
H           1.54826        -2.76229         0.78417

