%chk=CdCqOCCrc1cocqdOrcc1C.chk
%NProcShared=20
# opt freq b3lyp/6-31g(2df,p)

Title Card Required 

0  1
C           0.98890         0.04905         0.03197
C           2.33330         0.06996        -0.00954
O           3.10032         1.20340        -0.22816
C           2.40680         2.44722        -0.37963
C           3.39801         3.58464        -0.55886
C           3.11370        -1.15769         0.25345
C           2.77388        -2.30964        -0.36000
O           3.35240        -3.56531        -0.10865
C           4.35496        -3.67409         0.80753
O           4.80291        -4.75775         1.18077
C           4.88886        -2.42017         1.35597
C           4.26966        -1.24542         1.15223
C           4.71953        -0.00807         1.87000
H           0.38155         0.93235        -0.11600
H           0.44246        -0.86507         0.24013
H           1.80133         2.65458         0.51114
H           1.76475         2.40154        -1.26596
H           4.04078         3.68864         0.32114
H           2.86796         4.53074        -0.71379
H           4.04928         3.40391        -1.41918
H           1.98833        -2.43011        -1.09542
H           5.76851        -2.52209         1.97964
H           5.56193        -0.20616         2.54011
H           3.90139         0.38449         2.48488
H           5.04474         0.76320         1.16718

