%chk=COC1dCNqCC2CCqCrC2rCqCrC1.chk
%NProcShared=20
# opt freq b3lyp/6-31g(2df,p)

Title Card Required 

0  1
C           1.11542        -0.08672        -0.00446
O           2.53388         0.02555         0.04291
C           3.12516        -0.70752         1.02932
C           2.82737        -1.91532         1.52136
N           3.70308        -2.28165         2.52258
C           3.47248        -3.28729         3.55019
C           3.25616        -2.66215         4.93404
C           2.99133        -3.60390         6.13636
C           1.48539        -3.28068         6.03255
C           0.62530        -4.33924         5.36193
C           1.86199        -2.03760         5.19005
C           4.82617        -1.32883         2.58504
C           6.05561        -1.93019         1.90810
C           4.28493        -0.11294         1.78366
H           0.76313         0.45499        -0.88783
H           0.67988         0.39019         0.87992
H           0.77207        -1.12237        -0.08973
H           2.04420        -2.59468         1.21031
H           4.32153        -3.97828         3.58188
H           2.60551        -3.89050         3.26202
H           4.08134        -1.98320         5.17964
H           3.43950        -3.23722         7.07024
H           3.28102        -4.65045         6.01166
H           1.03708        -3.01539         6.99917
H           1.02854        -4.66161         4.39998
H          -0.38474        -3.95679         5.18784
H           0.54856        -5.22673         5.99790
H           1.90733        -1.11134         5.77619
H           1.24196        -1.85416         4.30822
H           5.08263        -1.02428         3.60405
H           5.83669        -2.24437         0.88119
H           6.41297        -2.80907         2.45386
H           6.86873        -1.19776         1.87015
H           5.04067         0.33850         1.13646
H           3.90612         0.65232         2.47312

