%chk=COC1dCqOrC23CdC2CdCCCCqOrC13O.chk
%NProcShared=20
# opt freq b3lyp/6-31g(2df,p)

Title Card Required 

0  1
C           1.12558        -0.07836        -0.02356
O           2.52732        -0.36686         0.04592
C           3.33015         0.57553         0.44942
C           4.54310         1.19910        -0.11634
O           5.40666         2.15591         0.18936
C           3.43473         1.51188        -1.07334
C           4.31849         1.78442        -2.57950
C           3.30889         2.35497        -2.09626
C           2.49838         3.47466        -2.18285
C           3.10499         4.32419        -1.34862
C           2.41217         5.06895        -0.29055
C           2.55695         4.41737         1.07545
C           1.90608         3.00954         1.07204
O           0.76496         2.86286         0.28618
C           3.04505         2.06445         0.69714
O           3.67863         1.95026         2.09145
H           0.64115        -0.93720        -0.49174
H           0.82441         0.74785        -0.68240
H           0.70682         0.06640         0.97544
H           5.07675         2.74702         0.91335
H           4.25513         2.18409        -3.63077
H           1.45087         3.25783        -2.35174
H           4.18743         4.20595        -1.17049
H           1.35118         5.11659        -0.52590
H           2.88296         6.04274        -0.28719
H           2.09558         5.07217         1.82626
H           3.61180         4.35162         1.40365
H           1.54014         2.90115         2.10973
H           1.13890         2.55819        -0.54905
H           2.94050         1.97013         2.75671

