%chk=COC1CCCNCqCrCCqCrC1.chk
%NProcShared=20
# opt freq b3lyp/6-31g(2df,p)

Title Card Required 

0  1
C           1.37146        -0.66069        -0.94221
O           2.53684        -0.30876        -0.24300
C           2.75264        -0.75828         1.10575
C           4.01508        -0.00381         1.64965
C           3.98787         1.50331         1.99121
C           3.18400         2.39603         1.04268
N           2.01699         3.13536         1.56005
C           0.90225         2.38581         2.18436
C           1.28802         1.87779         3.55825
C           0.29715         1.32330         1.25524
C           0.19714        -0.14946         1.76768
C          -0.99708        -0.31324         2.72019
C           1.54551        -0.85297         2.10555
H           1.34294        -0.13448        -1.90136
H           0.48153        -0.21205        -0.49699
H           1.17770        -1.71958        -1.01256
H           3.10940        -1.79342         0.99733
H           4.80101        -0.10462         0.88429
H           4.39751        -0.53621         2.53107
H           5.03078         1.85624         1.97992
H           3.75482         1.67407         3.04282
H           2.92976         1.87344         0.12230
H           3.88144         3.16986         0.69446
H           1.63508         3.64757         0.75976
H           0.10648         3.12802         2.34507
H           2.07851         1.15491         3.47936
H           0.49249         1.34919         4.07175
H           1.64035         2.66825         4.21797
H           0.85291         1.40644         0.32257
H          -0.70510         1.64126         0.92732
H          -0.20288        -0.80021         0.98490
H          -1.06774         0.41886         3.52024
H          -1.04080        -1.31848         3.14552
H          -1.91579        -0.17322         2.12981
H           1.31445        -1.92766         2.18277
H           1.89198        -0.66377         3.12590

