%chk=COCNdc1cncccc2ncn1-2.chk
%NProcShared=20
# opt freq b3lyp/6-31g(2df,p)

Title Card Required 

0  1
C           1.22649         0.03034         0.01338
O           3.06840         0.31990         0.22388
C           4.02002         1.75568         1.26798
N           5.82626         2.75204         1.99567
C           7.27654         3.69747         2.68529
C           6.80695         2.16693         1.56535
N           7.84078         2.65713         1.92151
C           8.95715         2.37807         1.71917
C           9.26757         3.34581         2.42493
C          10.63377         3.39171         2.45633
C          10.76725         4.35122         3.15068
N          12.00681         4.80909         3.48539
C          10.91217         5.55999         4.05546
N           9.26325         4.76562         3.41143
H           0.78870        -0.86819        -0.63947
H           0.72643         0.89214        -0.47075
H           0.72643        -0.16391         0.98264
H           2.98068         1.12927         1.91154
H           2.98043         2.17553         0.47199
H           7.11652         1.26240         0.90877
H           9.41226         1.70070         1.22711
H           8.14685         4.39658         3.19317
H          11.48403         2.97813         2.15553
H          12.45659         5.82869         4.22670

