%chk=CtCC1NCCCqCCqCrCC2CCNC2rC1N.chk
%NProcShared=20
# opt freq b3lyp/6-31g(2df,p)

Title Card Required 

0  1
C           0.94749         0.07339         0.04309
C           2.25135         0.07339         0.04309
C           3.77135         0.07339         0.04309
N           4.24004        -1.29848        -0.29947
C           3.85756        -1.69193        -1.66775
C           4.36232        -0.70586        -2.72834
C           3.95616         0.73491        -2.36366
C           4.52414         1.77400        -3.33607
C           4.09852         3.22306        -2.99438
C           4.47920         3.83427        -1.63089
C           4.62131         4.19774        -4.07055
C           3.74097         5.45703        -3.97103
C           2.39928         5.08976        -4.58499
C           2.61850         5.53087        -6.00720
N           3.22174         6.85399        -5.84447
C           4.14450         6.72822        -4.70314
C           4.37959         1.03232        -0.92383
N           5.84694         1.13122        -0.79980
H          -0.11826         0.07283         0.04306
H           4.10514         0.29186         1.06569
H           3.82625        -1.95516         0.36160
H           2.76754        -1.79146        -1.74738
H           4.26610        -2.68673        -1.87845
H           3.95500        -0.98213        -3.70895
H           5.45233        -0.78607        -2.81208
H           2.85959         0.78366        -2.44234
H           4.13969         1.51962        -4.33640
H           5.61307         1.69459        -3.40478
H           3.00220         3.18022        -2.99762
H           5.51763         3.62550        -1.37740
H           3.77448         3.56435        -0.84721
H           4.37031         4.91157        -1.55232
H           4.54153         3.73152        -5.06174
H           5.68836         4.39314        -3.91077
H           3.60182         5.76509        -2.93789
H           1.60083         5.62872        -4.06530
H           2.14934         4.02579        -4.56208
H           1.68588         5.53648        -6.56971
H           3.32900         4.87406        -6.52486
H           2.47045         7.48490        -5.55619
H           3.95643         7.58236        -4.03457
H           5.19971         6.77647        -4.98412
H           3.92362         1.93104        -0.55831
H           6.22494         0.18600        -0.97244
H           6.09322         1.34179         0.15420

