%chk=Ndc1ccc2cqcc1rdCCdCCdCCd2.chk
%NProcShared=20
# opt freq b3lyp/6-31g(2df,p)

Title Card Required 

0  1
N           1.57116        -0.05983        -0.03423
C           2.87894         0.27811        -0.08348
C           3.16349         1.75913        -0.29929
C           4.39847         2.28276        -0.37560
C           5.82393         3.24669        -0.51606
C           6.65645         2.00865        -0.33565
C           6.12417         0.28380        -0.08431
C           4.61636        -0.47859         0.02679
C           7.80673         2.60849        -0.42306
C           9.05456         3.14285        -0.50093
C           9.00527         4.74442        -0.73431
C          10.35125         4.90568        -0.75781
C           8.68333         5.13137        -0.79069
C           6.65406         4.73755        -0.73331
H           0.82551         0.74374        -0.15133
H           2.32508         2.36272        -0.38725
H           4.72704         1.31344        -0.23435
H           7.33059         0.28280        -0.08416
H           3.94941        -1.52573         0.17938
H           7.69917         3.57815        -0.56436
H           9.80940         2.41564        -0.39496
H           8.62952         6.41312        -0.97747
H          11.21462         4.10111        -0.64056
H           9.87236         6.13163        -0.93645
H           5.47479         4.96903        -0.76704

