%chk=NdCCNNCCSCC1SCC1O.chk
%NProcShared=20
# opt freq b3lyp/6-31g(2df,p)

Title Card Required 

0  1
N           1.07164         0.08302         0.01321
C           2.36812         0.06614         0.02291
C           3.15312         1.29727         0.40003
N           4.59418         1.01168         0.31655
N           5.31073         2.22345         0.70791
C           6.75595         1.96567         0.62009
C           7.56152         3.21716         1.00123
S           9.32044         2.79549         0.79999
C          10.12670         4.32474         1.37570
C          11.63653         4.09345         1.27172
S          12.58720         5.33553         2.22747
C          13.49702         3.79969         2.54871
C          12.28046         2.93640         2.12189
O          12.61699         1.72058         1.40329
H           0.71066        -0.83647        -0.26088
H           2.91475        -0.85263        -0.24541
H           2.87263         1.56892         1.42377
H           2.87332         2.10873        -0.28034
H           4.81660         0.77306        -0.65634
H           5.09028         2.47206         1.67843
H           7.00873         1.66912        -0.40670
H           7.02016         1.13520         1.28900
H           7.35227         3.50841         2.03685
H           7.31075         4.05342         0.34029
H           9.81492         4.54871         2.40215
H           9.82836         5.15738         0.72824
H          11.95564         4.06591         0.22038
H          13.79786         3.65356         3.59061
H          14.38131         3.66714         1.91643
H          11.66175         2.66179         2.98811
H          13.10033         2.00462         0.60801

