%chk=NdCCtCCCqSrCc1ccccc1.chk
%NProcShared=20
# opt freq b3lyp/6-31g(2df,p)

Title Card Required 

0  1
N           1.10104        -0.10894        -0.21996
C           2.38032        -0.10689        -0.08615
C           3.07476        -0.21824        -1.33467
C           3.72669        -0.32216        -2.45905
C           4.48669        -0.44330        -3.76983
C           5.77673        -1.23536        -3.54189
S           5.38531        -2.88179        -2.76827
C           6.54993        -1.35577        -4.86884
C           7.87709        -2.04369        -4.67843
C           7.94636        -3.44312        -4.71251
C           9.09518        -4.09974        -4.28576
C          10.22008        -3.36295        -3.92624
C          10.18306        -1.96903        -3.95394
C           9.00965        -1.30827        -4.31243
H           0.66398        -0.02947         0.70348
H           2.92019        -0.02679         0.86655
H           4.70565         0.56115        -4.14940
H           3.84455        -0.94281        -4.50554
H           6.39408        -0.70269        -2.80630
H           4.70998        -3.39208        -3.80632
H           6.72982        -0.35073        -5.27624
H           5.95364        -1.87818        -5.62772
H           7.07540        -4.03093        -4.99490
H           9.09677        -5.18300        -4.20438
H          11.12368        -3.87780        -3.61454
H          11.05855        -1.39678        -3.66099
H           8.97489        -0.22205        -4.27316

