%chk=OC1CC1dCCC[SH]1CdCd[SH]1.chk
%NProcShared=20
# opt freq b3lyp/6-31g(2df,p)

Title Card Required 

0  1
O           0.95927        -0.12332        -0.05511
C           2.38818         0.04438         0.00979
C           3.15999        -0.68432        -1.12274
C           3.13516         0.73900        -0.98462
C           3.52602         1.92267        -1.47869
C           3.15414         3.35971        -0.94313
C           3.68504         4.72434        -1.67347
S           3.41834         6.33063        -0.74163
C           2.97800         8.43169        -0.61160
C           3.56525         8.16372        -1.70422
S           4.23506         7.30434        -2.72662
H           0.62206        -0.59708         0.72502
H           2.83291        -0.01326         1.00013
H           2.54727        -1.19005        -1.86678
H           4.01908        -1.28266        -0.82504
H           4.14873         1.88139        -2.37164
H           3.49467         3.39008         0.09686
H           2.05672         3.39247        -0.94042
H           3.29106         4.73304        -2.70046
H           4.78127         4.65454        -1.72619
H           2.23674         5.94603        -0.19810
H           2.91857         9.55309        -0.69656
H           5.44997         7.37898        -2.22663

