%chk=OCCdCCdCCCN1CCCCCdNN1.chk
%NProcShared=20
# opt freq b3lyp/6-31g(2df,p)

Title Card Required 

0  1
O           0.99462         0.13733        -0.00550
C           2.41233         0.10509         0.01423
C           2.91572         1.29351        -0.72586
C           4.23086         1.53549        -0.88338
C           4.72757         2.66665        -1.61197
C           6.04312         2.89185        -1.78764
C           6.51785         4.09705        -2.54120
C           8.04227         4.18741        -2.62444
N           8.60941         5.42423        -3.22900
C           9.82371         5.78103        -2.46401
C           9.50299         6.24169        -1.01612
C           8.75895         7.58225        -0.89868
C           9.29180         8.61632        -1.87689
C           8.85885         8.50549        -3.33513
N           8.14894         7.59144        -3.93627
N           7.70979         6.57099        -3.17746
H           0.69548        -0.64956         0.48011
H           2.74416        -0.81981        -0.46747
H           2.74517         0.12665         1.05620
H           2.17773         1.96682        -1.15052
H           4.95765         0.85193        -0.45473
H           4.00804         3.36312        -2.03556
H           6.77947         2.22200        -1.35519
H           6.13594         4.96933        -1.99670
H           6.10497         4.09515        -3.55525
H           8.43168         3.33467        -3.19793
H           8.43085         4.00118        -1.61638
H          10.38738         6.55128        -3.00564
H          10.52059         4.93368        -2.45392
H          10.44162         6.29293        -0.45780
H           8.89266         5.50544        -0.48256
H           8.86561         7.93864         0.13134
H           7.67572         7.45301        -1.02358
H          10.38929         8.60038        -1.86043
H           8.99886         9.61630        -1.54173
H           9.24549         9.30947        -3.98616
H           6.75356         6.33854        -3.45699

