%chk=OdC1CdCCdCC2dCNdCC2dCC2dCCdCCdCC2dCCdC1.chk
%NProcShared=20
# opt freq b3lyp/6-31g(2df,p)

Title Card Required 

0  1
O           3.41720        -0.50056         0.89724
C           4.20198        -0.32426        -0.04299
C           3.53188        -0.10936        -1.35795
C           4.32331         0.81780        -1.90945
C           4.91161         0.44437        -3.13874
C           6.23954         0.50094        -3.06261
C           7.17118         0.29250        -4.05748
C           7.12738         1.14961        -5.08386
N           8.09899         0.94671        -6.02066
C           8.79148        -0.05523        -5.54154
C           8.29902        -0.58203        -4.23069
C           8.80430        -1.61162        -3.51160
C           8.29890        -2.19783        -2.20662
C           7.01227        -2.60840        -2.16143
C           6.22408        -2.97596        -0.99289
C           6.56081        -3.09391         0.30713
C           7.83514        -2.91260         0.97338
C           9.01411        -2.64756         0.37916
C           9.02605        -1.94660        -0.91411
C           8.82505        -0.71375        -0.37809
C           7.33718        -0.12623        -0.35824
C           6.01069        -0.33037         0.18212
H           2.54705        -0.29169        -1.80473
H           4.99400         1.28259        -1.18729
H           4.37557         0.11355        -4.00487
H           6.61947         0.97227        -2.19382
H           6.37565         1.93762        -5.13954
H           9.64444        -0.50459        -6.05214
H           9.70539        -2.09815        -3.89464
H           6.40199        -2.45485        -3.05580
H           5.15636        -2.99675        -1.21344
H           5.73932        -3.16376         1.02070
H           7.78594        -2.68930         2.04675
H           9.79828        -2.27873         1.06637
H           9.83451        -0.26021        -0.23889
H           7.66614         0.26382        -1.29282
H           5.91494        -0.64586         1.22345

