%chk=OdC1CCCNCCC2CCN1C2.chk
%NProcShared=20
# opt freq b3lyp/6-31g(2df,p)

Title Card Required 

0  1
O           1.08070         0.35449         0.02520
C           2.11929         0.35952         0.70300
C           3.04149        -0.88733         0.65472
C           3.50477        -1.25376         2.05185
C           4.99204        -0.91202         2.24974
N           5.34692        -0.41616         3.58791
C           4.70274         0.86140         3.87145
C           5.09093         2.03677         2.92733
C           3.90220         2.95560         2.51929
C           3.86474         3.39281         0.99330
C           2.60936         2.70549         0.42536
N           2.61404         1.53383         1.24151
C           2.58655         2.16223         2.58697
H           3.87515        -0.75750        -0.05582
H           2.47087        -1.73515         0.24179
H           3.33921        -2.31769         2.25959
H           2.83161        -0.74022         2.73720
H           5.32986        -0.20539         1.48648
H           5.57360        -1.82074         2.06352
H           6.35348        -0.30618         3.66818
H           4.82336         1.16959         4.91535
H           3.66506         0.58514         3.85771
H           5.59460         1.68658         2.02298
H           5.86664         2.62510         3.43883
H           3.93637         3.86219         3.13941
H           4.75620         3.03430         0.46610
H           3.79063         4.47513         0.85775
H           2.55824         2.55853        -0.65249
H           1.67455         3.22446         0.69348
H           2.34244         1.57481         3.46434
H           1.78082         2.91093         2.63905

