%chk=OdC[C]dCdCCd[SH]C1OCC1dO.chk
%NProcShared=20
# opt freq b3lyp/6-31g(2df,p)

Title Card Required 

0  2
O           1.07170        -0.09499         0.23785
C           2.26545         0.07163         0.05836
C           3.30150        -0.58266         0.79224
C           4.45043        -0.80839         1.06323
C           5.74176        -0.80772         1.09445
C           6.48022         0.39403         0.63767
S           8.25086         0.33280         0.79074
C           8.79155         1.95156         0.04847
O           8.14334         3.20682         0.40711
C           9.41864         3.86421         0.70881
C           9.99629         2.46751         0.87970
O          10.92892         1.98551         1.48454
H           2.70473         0.74768        -0.69177
H           6.29622        -1.69144         1.38596
H           5.91581         1.26868         0.27589
H           8.56147        -0.48145        -0.19746
H           8.94316         1.90259        -1.03492
H           9.39831         4.47540         1.61251
H           9.84871         4.42183        -0.13130

