%chk=C.CCCCCCC1CCCCCCCC1.chk
%NProcShared=20
# opt freq b3lyp/6-31g(2df,p)

Title Card Required 

0  1
C          -0.18234         0.40269         0.97421
C           1.52046        -0.46972        -0.61958
C           2.96234        -0.33905        -0.28713
C           3.23991         0.50848        -1.47101
C           4.70284         0.62944        -1.44972
C           4.90199         1.36411        -2.75337
C           6.35223         1.54061        -2.70460
C           7.05676         1.91357        -3.96179
C           8.12486         2.94562        -3.58169
C           9.39110         2.42362        -2.88373
C           9.19360         1.62969        -1.58713
C           9.85195         0.24596        -1.58381
C           9.46296        -0.73346        -2.71245
C           7.98231        -1.06574        -2.76338
C           7.35809        -0.71777        -4.15492
C           7.62096         0.69992        -4.74083
H           0.88480         0.57895         1.19187
H          -0.41786        -0.65719         0.81823
H          -0.47241         0.90523         0.03807
H          -0.60276         0.75782         1.89362
H           1.21328        -1.17618         0.13970
H           1.14733        -0.79804        -1.57109
H           1.24695         0.59693        -0.60576
H           3.39521        -1.32862        -0.22348
H           3.16005         0.20390         0.64400
H           2.80938         1.51350        -1.41242
H           2.88986         0.03969        -2.39062
H           5.12605        -0.37926        -1.40745
H           5.01955         1.17237        -0.55769
H           4.41048         2.33405        -2.77608
H           4.58143         0.74246        -3.59321
H           6.61019         0.55215        -2.47510
H           6.56737         2.14960        -1.82901
H           6.31795         2.41303        -4.59875
H           7.65893         3.70577        -2.93853
H           8.41861         3.46197        -4.50052
H          10.01187         3.29882        -2.65350
H           9.98760         1.84983        -3.59634
H           8.16613         1.46663        -1.30881
H           9.55092         2.23324        -0.74189
H           9.59931        -0.22426        -0.62518
H          10.93381         0.39024        -1.61202
H           9.99362        -1.67700        -2.56935
H           9.80811        -0.34400        -3.67020
H           7.55680        -0.62678        -1.85630
H           7.75421        -2.11529        -2.54625
H           6.27276        -0.88976        -4.14566
H           7.75465        -1.44853        -4.87061
H           7.18578         0.73753        -5.74993
H           8.68782         0.83104        -4.93891

