%chk=CC1CCCCCCCqCrqOrCC1C.chk
%NProcShared=20
# opt freq b3lyp/6-31g(2df,p)

Title Card Required 

0  1
C           1.05229         0.07155         0.37794
C           2.54918         0.06129         0.01985
C           2.96090        -1.11669        -0.91926
C           1.85142        -1.98420        -1.52882
C           1.44696        -1.62735        -2.97867
C           0.72211        -0.27525        -3.21391
C           1.73928         0.86206        -3.28244
C           1.28208         2.32481        -3.22847
C           2.04815         3.20436        -2.17310
C           1.38245         4.58264        -2.06289
O           3.37844         3.49441        -2.56942
C           2.04860         2.54444        -0.77310
C           3.14282         1.47802        -0.39221
C           4.38931         1.39486        -1.31648
H           0.72393        -0.87716         0.81122
H           0.43452         0.24402        -0.50335
H           0.80819         0.85108         1.10593
H           3.04314        -0.16257         0.97953
H           3.63440        -1.75951        -0.33316
H           3.59832        -0.80368        -1.74719
H           0.96216        -2.04716        -0.90048
H           2.24498        -3.01054        -1.54800
H           0.78483        -2.42921        -3.32412
H           2.34258        -1.67605        -3.61208
H          -0.01626        -0.11185        -2.42534
H           0.16197        -0.31759        -4.15255
H           2.43152         0.70974        -4.11679
H           2.30291         0.69913        -2.39842
H           0.20673         2.36560        -3.02803
H           1.44719         2.76023        -4.22243
H           1.48943         5.13296        -3.00364
H           1.88906         5.19050        -1.30070
H           0.32395         4.51423        -1.79995
H           3.41737         3.57904        -3.54461
H           1.03235         2.16391        -0.64927
H           2.09836         3.31690         0.00800
H           3.56675         1.86875         0.54644
H           4.15862         1.16180        -2.36196
H           5.08895         0.62365        -0.98287
H           4.94707         2.33360        -1.33330

