%chk=CC1CCCCCqCrCCCqCrCC1.chk
%NProcShared=20
# opt freq b3lyp/6-31g(2df,p)

Title Card Required 

0  1
C           0.85829         0.05342        -0.03474
C           2.39062        -0.01625        -0.06152
C           2.82502        -1.41246        -0.59053
C           4.16235        -1.91683        -0.02364
C           5.36809        -1.62046        -0.91972
C           6.69882        -1.33720        -0.20125
C           6.82274         0.03019         0.51956
C           5.86839         0.13708         1.69995
C           6.73591         1.20079        -0.48831
C           6.12536         2.52145         0.00285
C           4.82774         2.91493        -0.75017
C           4.74075         4.44120        -0.79178
C           3.54366         2.31984        -0.10636
C           2.96780         1.13969        -0.91428
H           0.45040        -0.72680         0.61807
H           0.43671        -0.09338        -1.03563
H           0.51372         1.01830         0.34945
H           2.71408         0.08120         0.98239
H           2.84468        -1.41875        -1.68937
H           2.06860        -2.14948        -0.29802
H           4.10418        -3.00596         0.09311
H           4.27225        -1.56167         1.00039
H           5.14708        -0.81765        -1.62527
H           5.52074        -2.50560        -1.55261
H           7.49847        -1.38840        -0.95338
H           6.90756        -2.14740         0.51005
H           7.83335         0.05914         0.95215
H           4.86361         0.35138         1.34974
H           6.14851         0.93787         2.38801
H           5.84483        -0.78703         2.28471
H           6.23919         0.89350        -1.41113
H           7.76541         1.41141        -0.81527
H           6.88619         3.29615        -0.15865
H           5.94826         2.54588         1.08056
H           4.90378         2.59078        -1.79609
H           4.67327         4.86255         0.21571
H           3.86865         4.76178        -1.36932
H           5.62891         4.85804        -1.28039
H           2.76285         3.08976        -0.04689
H           3.73288         2.04401         0.93519
H           3.72725         0.75525        -1.59739
H           2.18009         1.54479        -1.56573

