%chk=CC1CC1C[SH]1CCqNCCOrS1.chk
%NProcShared=20
# opt freq b3lyp/6-31g(2df,p)

Title Card Required 

0  1
C           0.93283        -0.06288        -0.08824
C           2.41950        -0.07270        -0.05613
C           3.18388        -0.77505        -1.14627
C           3.20372         0.74866        -1.06028
C           4.49517         1.37709        -0.65735
S           4.55429         3.09319        -0.86068
C           3.32602         4.18757        -0.26054
C           3.32540         5.08379        -1.55730
N           4.45807         6.02087        -1.56213
C           4.09639         7.29158        -0.94916
C           5.24958         8.29859        -1.04881
O           4.89058         9.52170        -0.41461
S           3.76173         3.69334        -2.65767
H           0.53986        -0.67607         0.72998
H           0.53572        -0.46140        -1.02689
H           0.56092         0.95776         0.03866
H           2.80337        -0.12582         0.95312
H           2.62891        -1.23715        -1.95558
H           4.07125        -1.33288        -0.86969
H           2.69501         1.23150        -1.88001
H           5.28089         1.01064        -1.32955
H           4.79342         1.12845         0.36350
H           5.75652         3.61995        -0.57768
H           3.64417         4.73105         0.64074
H           2.35338         3.73860        -0.02573
H           2.36067         5.54142        -1.80086
H           4.78420         6.17762        -2.51714
H           3.84110         7.14905         0.10641
H           3.21335         7.72338        -1.43571
H           5.50076         8.51465        -2.09365
H           6.14939         7.91339        -0.55744
H           4.10581         9.86975        -0.87104

