%chk=CC1CCqCrCqCrCCCCCCCO1.chk
%NProcShared=20
# opt freq b3lyp/6-31g(2df,p)

Title Card Required 

0  1
C           0.86831         0.02419        -0.10593
C           2.38892         0.04287        -0.02329
C           3.00166        -1.23185        -0.64402
C           3.70412        -2.20848         0.36036
C           3.68932        -1.71519         1.81015
C           5.12687        -2.62099        -0.16218
C           5.14200        -4.10575        -0.56094
C           6.31452        -2.35696         0.80161
C           7.32504        -1.35219         0.23341
C           7.41940        -0.07511         1.08248
C           7.23346         1.20133         0.25019
C           6.10803         2.10028         0.78802
C           5.02249         2.39301        -0.26838
C           3.60661         2.08738         0.23493
O           2.93165         1.20038        -0.67432
H           0.48212        -0.86211         0.41320
H           0.50579         0.02231        -1.13442
H           0.45931         0.90997         0.39232
H           2.58548         0.12292         1.03200
H           3.67654        -0.95039        -1.46028
H           2.21101        -1.81190        -1.14296
H           3.08027        -3.11487         0.36543
H           4.24813        -0.77524         1.90506
H           4.12083        -2.44850         2.49515
H           2.66676        -1.55100         2.16625
H           5.31604        -2.09010        -1.10135
H           4.94164        -4.74915         0.30157
H           6.12198        -4.37987        -0.96968
H           4.39487        -4.31483        -1.33341
H           6.84139        -3.29572         1.01125
H           6.00309        -2.02617         1.78936
H           7.10737        -1.12236        -0.81351
H           8.31011        -1.83439         0.22485
H           8.41340        -0.04860         1.54760
H           6.71616        -0.09948         1.92056
H           7.07018         0.96316        -0.80449
H           8.17430         1.76520         0.27835
H           6.55625         3.05346         1.09972
H           5.67166         1.68245         1.70032
H           5.21461         1.86476        -1.20669
H           5.07716         3.46391        -0.50110
H           3.01977         3.01231         0.26535
H           3.63164         1.70350         1.25635

