%chk=CCC1qCqOrC2CCCC2rCCCdC1C.chk
%NProcShared=20
# opt freq b3lyp/6-31g(2df,p)

Title Card Required 

0  1
C           0.90634         0.09953         0.23602
C           2.43604         0.07166         0.11061
C           2.91852        -0.24599        -1.32879
C           4.48914        -0.04235        -1.44228
O           5.16755        -0.82555        -0.44612
C           5.19636        -0.27717        -2.81002
C           5.09079        -1.69189        -3.36784
C           5.09178        -1.58919        -4.87802
C           4.79005        -0.14318        -5.23221
C           4.75083         0.64981        -3.94139
C           2.42898        -1.67296        -1.72021
C           1.82687        -1.56752        -3.13299
C           1.56927        -0.10488        -3.27216
C           2.14433         0.61859        -2.31136
C           2.16124         2.11865        -2.19486
H           0.60608         0.33368         1.25624
H           0.45353        -0.85619        -0.03560
H           0.45341         0.85111        -0.41682
H           2.84060        -0.66860         0.81100
H           2.83104         1.04694         0.42559
H           4.71024         0.99679        -1.15826
H           5.01739        -1.76497        -0.63737
H           6.27268        -0.10168        -2.66039
H           4.17222        -2.17488        -3.11435
H           5.83539        -2.38037        -2.95998
H           4.32613        -2.25188        -5.30429
H           6.05427        -1.90303        -5.28137
H           3.81842        -0.06532        -5.74007
H           5.54231         0.26035        -5.91170
H           3.74092         1.01450        -3.85448
H           5.34452         1.56830        -3.97671
H           1.63944        -2.04524        -1.06423
H           3.19221        -2.44532        -1.57798
H           0.92552        -2.17548        -3.22045
H           2.47894        -1.88058        -3.94976
H           1.06942         0.31274        -4.14078
H           1.64852         2.58806        -3.03884
H           3.18613         2.50240        -2.17079
H           1.67114         2.45372        -1.27806

