%chk=CCC1dCCdCCdCCdCCCCdCCdCCdC1.chk
%NProcShared=20
# opt freq b3lyp/6-31g(2df,p)

Title Card Required 

0  1
C           1.88589        -0.53801         0.16073
C           3.97685        -1.99072         0.35670
C           5.75240        -4.27127         0.66434
C           5.00226        -2.31311         0.40019
C           4.99944        -3.41211         0.54843
C           6.74491        -3.05458         0.50020
C           7.06525        -4.77904         0.73282
C           8.25799        -4.77309         0.73202
C           9.20481        -6.29772         0.93769
C          10.24462        -6.09261         0.91002
C          10.64385        -7.17163         1.05558
C          11.91649        -7.35796         1.08072
C          12.05875        -8.38901         1.21973
C          13.48715        -9.28488         1.34065
C          13.84782       -10.79217         1.54398
C          12.10377        -9.66469         1.39190
C           9.67686        -8.21134         1.19585
C           7.66413        -6.39899         0.95135
H           0.79429         0.94728        -0.03963
H           0.70570        -0.35527         1.02198
H           0.70570        -0.59001        -0.71816
H           3.26397        -0.18495         0.72706
H           3.26397        -0.34763        -0.47891
H           5.12894        -0.85825         0.20393
H           4.03403        -3.83802         0.60589
H           7.02812        -2.26114         0.39317
H           5.23336        -5.44832         0.82311
H           8.81566        -4.07948         0.63846
H           8.20761        -7.68398         1.12469
H          10.80745        -5.59402         0.84276
H          10.03844        -8.49565        -0.04946
H          10.03846        -8.15553         2.47195
H          12.32314        -7.37021         2.00628
H          12.32314        -7.61501         0.19148
H          11.21520       -10.31686         1.47980
H          14.50519        -8.84071         1.28073
H          13.47045       -12.01548         1.70900
H          14.21583       -10.22159         1.46701
H          11.19497        -9.30872         1.34395
H           6.23162        -5.81238         0.87220

