%chk=CCC1CCqCrqCOCrCCCCS1.chk
%NProcShared=20
# opt freq b3lyp/6-31g(2df,p)

Title Card Required 

0  1
C           1.00389         0.02960        -0.01123
C           2.53445         0.01974        -0.05744
C           3.11428         0.20449         1.36528
C           3.78366        -1.08998         1.89672
C           3.95567        -1.20103         3.44630
C           5.24700        -0.49733         3.88632
C           4.20892        -2.67790         3.84978
O           4.36909        -2.71527         5.27435
C           4.78068        -3.98107         5.74604
C           2.68480        -0.65415         4.17641
C           2.76870         0.76305         4.77567
C           2.77094         2.00046         3.85273
C           4.03076         2.37034         3.06512
S           4.22149         1.67420         1.36768
H           0.58613        -0.07276        -1.01637
H           0.63391         0.97174         0.41100
H           0.62274        -0.79041         0.60681
H           2.84378         0.81916        -0.74028
H           2.86894        -0.92347        -0.50386
H           2.25364         0.44487         1.97642
H           4.75333        -1.23795         1.40310
H           3.16330        -1.94102         1.57594
H           6.14303        -0.93518         3.43137
H           5.37534        -0.48055         4.97759
H           5.25544         0.49831         3.55798
H           5.13534        -3.03734         3.37744
H           3.38862        -3.33776         3.55703
H           4.88743        -3.91889         6.83258
H           5.74797        -4.25217         5.31419
H           4.02356        -4.72959         5.50383
H           2.42077        -1.32807         5.00478
H           1.79622        -0.73773         3.53453
H           3.60291         0.81775         5.48374
H           1.87226         0.86745         5.40506
H           2.59760         2.85259         4.52284
H           1.89570         1.99185         3.19774
H           4.94371         2.24817         3.65927
H           4.03804         3.45450         2.90861

