%chk=CCCCCCOC1CCqCCCCCrC1.chk
%NProcShared=20
# opt freq b3lyp/6-31g(2df,p)

Title Card Required 

0  1
C           0.99285        -0.06991         0.09372
C           2.50808        -0.05550         0.08762
C           3.01602         1.31847        -0.32436
C           4.53023         1.33872        -0.34185
C           5.03557         2.70993        -0.76004
C           6.54157         2.67553        -0.74935
O           7.05620         3.97078        -1.00265
C           8.49759         4.01742        -1.03977
C           9.15453         5.28919        -0.46809
C          10.26325         4.37738         0.11612
C          11.47591         4.12954        -0.76872
C          12.42072         3.15703        -0.06977
C          13.65437         2.91332        -0.92443
C          14.62127         1.96458        -0.22762
C          15.85179         1.73798        -1.08584
C           9.23009         3.24107         0.08952
H           0.62360        -1.05590         0.38609
H           0.60158         0.16624        -0.90103
H           0.60317         0.67024         0.79990
H           2.88263        -0.81703        -0.60658
H           2.88490        -0.31185         1.08496
H           2.64796         2.07939         0.37450
H           2.63637         1.57741        -1.31971
H           4.91268         0.57561        -1.03147
H           4.91631         1.08855         0.65544
H           4.67694         3.48446        -0.07121
H           4.67260         2.98551        -1.75638
H           6.92800         1.96892        -1.49304
H           6.86525         2.34864         0.24395
H           8.85595         3.76596        -2.04553
H           8.54698         5.78859         0.29586
H           9.48254         6.03356        -1.19922
H          10.55793         4.66991         1.13210
H          11.98902         5.07769        -0.96014
H          11.18226         3.72049        -1.74428
H          11.91287         2.20467         0.12755
H          12.71209         3.56396         0.90636
H          14.15256         3.86908        -1.12671
H          13.35381         2.49296        -1.89221
H          14.12891         1.00507        -0.03044
H          14.92124         2.38158         0.74089
H          15.57624         1.29888        -2.05008
H          16.54593         1.05885        -0.58377
H          16.37080         2.68304        -1.27569
H           8.67561         3.16168         1.03142
H           9.57468         2.24104        -0.19390

