%chk=CCCCCCCCCCqCrCCOCqCrOC.chk
%NProcShared=20
# opt freq b3lyp/6-31g(2df,p)

Title Card Required 

0  1
C           0.90529         0.09630        -0.00030
C           2.42238         0.09242         0.00739
C           2.94804        -0.55240         1.28267
C           4.46934        -0.55991         1.29375
C           4.97247        -1.21089         2.57246
C           6.48901        -1.22963         2.58574
C           6.98448        -1.89138         3.86212
C           8.49952        -1.88270         3.86065
C           9.04875        -2.49480         5.14211
C          10.58141        -2.46951         5.15747
C          11.10888        -1.02546         5.04585
C          11.08481        -3.17961         6.43221
C          12.60259        -3.21550         6.43354
O          13.13791        -3.75283         7.63218
C          14.57500        -3.70304         7.63064
C          15.08834        -2.25838         7.53943
O          15.03387        -4.31430         8.83815
C          16.44406        -4.46584         8.89176
H           0.53300         0.56018        -0.91788
H           0.51423         0.65850         0.85348
H           0.51430        -0.92465         0.05300
H           2.79271         1.12098        -0.07020
H           2.79257        -0.45471        -0.86697
H           2.57575        -1.58102         1.36152
H           2.57698        -0.00618         2.15801
H           4.85096         0.46589         1.22394
H           4.84899        -1.10802         0.42376
H           4.59142        -2.23624         2.64683
H           4.60177        -0.66054         3.44451
H           6.87402        -0.20357         2.52220
H           6.86891        -1.77085         1.71227
H           6.61248        -2.91996         3.92984
H           6.61129        -1.34496         4.73461
H           8.81829        -0.84019         3.76213
H           8.88449        -2.42559         2.99171
H           8.69881        -3.53298         5.22132
H           8.65578        -1.95816         6.01135
H          10.94491        -3.02918         4.28820
H          10.77715        -0.42096         5.89432
H          10.78100        -0.53738         4.12445
H          12.19985        -0.98232         4.99331
H          10.69244        -4.20354         6.48712
H          10.72099        -2.66744         7.32954
H          12.92912        -2.18371         6.36904
H          12.97421        -3.77302         5.56892
H          14.93091        -4.29711         6.77984
H          14.70231        -1.67116         8.37899
H          14.79039        -1.75657         6.61530
H          16.17780        -2.20335         7.55649
H          16.69691        -5.03656         9.78818
H          16.93806        -3.49465         8.97942
H          16.81411        -4.99970         8.01173

