%chk=CCCCCqOCqCrOCCrCqCrdO.chk
%NProcShared=20
# opt freq b3lyp/6-31g(2df,p)

Title Card Required 

0  1
C           0.98600         0.01513         0.28549
C           2.50402        -0.09302         0.42012
C           3.04060        -1.31753        -0.35390
C           4.53527        -1.14511        -0.73766
C           5.04128        -1.89821        -2.00804
O           4.60699        -1.40450        -3.31635
C           3.18551        -1.30403        -3.49777
C           2.75865         0.00207        -2.84725
O           2.69056        -1.20751        -4.84084
C           1.24740        -1.14523        -4.82227
C           0.73668        -0.61462        -6.12997
C           6.60168        -1.91511        -2.05963
C           7.41142        -1.03500        -1.11314
O           7.20176        -2.62538        -2.85025
H           0.57528         0.73382         0.99917
H           0.51477        -0.95840         0.43748
H           0.69622         0.36927        -0.71131
H           2.80662        -0.14877         1.46830
H           2.92123         0.84520         0.02333
H           2.37566        -1.43642        -1.19977
H           2.87231        -2.28387         0.12603
H           5.10254        -1.45223         0.14753
H           4.79181        -0.08108        -0.86920
H           4.73903        -2.94903        -1.91607
H           2.75562        -2.23006        -3.09113
H           2.91746         0.91975        -3.40526
H           3.36174         0.20423        -2.00009
H           1.72181        -0.05916        -2.51353
H           0.85049        -0.43203        -4.09566
H           0.83864        -2.12619        -4.56084
H           1.11705         0.40236        -6.28016
H          -0.35677        -0.57132        -6.10823
H           1.08195        -1.23838        -6.95182
H           6.82161        -0.40885        -0.44843
H           8.04176        -0.35994        -1.69650
H           8.03088        -1.67926        -0.48214

