%chk=CCCCqCrCCCCCCCCOCO.chk
%NProcShared=20
# opt freq b3lyp/6-31g(2df,p)

Title Card Required 

0  1
C           0.90875         0.08767        -0.04636
C           2.42343         0.06918        -0.04282
C           3.00087         1.02138        -1.08894
C           4.53845         0.99435        -1.11480
C           5.06737        -0.41135        -1.42932
C           5.04648         2.02024        -2.14101
C           6.56791         2.08140        -2.16428
C           7.06591         3.07165        -3.19778
C           8.58651         3.05986        -3.20576
C           9.10736         4.03469        -4.24553
C          10.62597         4.03322        -4.24909
C          11.15818         5.01220        -5.28399
C          12.67595         5.00237        -5.27464
O          13.15136         5.91561        -6.25666
C          14.56630         5.93678        -6.26373
O          14.99882         6.87931        -7.22166
H           0.52892        -0.61893         0.69746
H           0.52394        -0.21082        -1.02677
H           0.52666         1.08381         0.19169
H           2.73605        -0.95955        -0.24230
H           2.79971         0.33910         0.95061
H           2.65870         2.04252        -0.87312
H           2.61040         0.76388        -2.08187
H           4.90686         1.29009        -0.12340
H           4.72835        -0.73978        -2.41739
H           4.74275        -1.14486        -0.68883
H           6.15878        -0.45409        -1.40846
H           4.65158         3.01560        -1.89760
H           4.67074         1.76868        -3.14110
H           6.98907         1.10456        -2.41942
H           6.94363         2.34929        -1.16927
H           6.69292         4.07679        -2.97180
H           6.68828         2.79351        -4.18949
H           8.95252         2.04851        -3.42648
H           8.96674         3.32773        -2.21194
H           8.73398         5.04190        -4.02611
H           8.73071         3.75414        -5.23656
H          10.99473         3.02288        -4.46656
H          10.99820         4.30380        -3.25304
H          10.78997         6.02502        -5.07829
H          10.78850         4.75210        -6.28363
H          13.04292         3.99525        -5.50444
H          13.04355         5.29869        -4.28521
H          14.96422         4.95104        -6.52688
H          14.94683         6.23847        -5.28377
H          14.63928         6.55720        -8.05879

