%chk=CCCC1dCCdCqCSrSCdC1.chk
%NProcShared=20
# opt freq b3lyp/6-31g(2df,p)

Title Card Required 

0  1
C           0.98075         0.06568        -0.00657
C           2.49195         0.06194         0.00177
C           3.04837         1.04963        -1.03083
C           4.56565         1.08109        -1.05479
C           5.21789         1.13858         0.11048
C           6.60306         1.11933         0.43309
C           7.73375         1.09825        -0.28744
C           9.10975         1.12403         0.37305
S           9.19112         1.20560         2.18167
S           7.91843         1.05496        -2.01386
C           6.41389         1.01349        -2.79134
C           5.14959         1.02759        -2.36764
H           0.60711        -0.62757         0.75161
H           0.59763        -0.23783        -0.98387
H           0.60443         1.06684         0.22582
H           2.87136        -0.94621        -0.20626
H           2.80711         0.31916         1.01796
H           2.67979         2.06507        -0.83573
H           2.65013         0.76169        -2.01254
H           4.62246         1.20409         1.02168
H           6.68535         1.12044         1.51927
H           9.65077         2.00110        -0.00066
H           9.66187         0.22836         0.06770
H           8.36886         2.25732         2.31885
H           6.52333         0.97175        -3.87359
H           4.41789         1.00032        -3.17651

