%chk=CCCCqCCCrCCCCCOO.chk
%NProcShared=20
# opt freq b3lyp/6-31g(2df,p)

Title Card Required 

0  1
C           0.65985        -0.08876         0.19666
C           2.16767        -0.08374         0.15067
C           2.86252         0.76651         1.21083
C           4.41549         0.79319         1.11394
C           4.97084         1.44331        -0.18629
C           4.66430         0.71581        -1.48943
C           5.23557         1.37837        -2.71943
C           4.95782         1.55579         2.35547
C           6.48508         1.56960         2.42953
C           6.99074         2.34396         3.63696
C           8.51539         2.36211         3.63655
C           9.04418         3.14244         4.82361
O          10.46667         3.12153         4.78356
O          10.89752         3.87793         5.94812
H           0.29197        -0.63561        -0.68110
H           0.28729         0.93795         0.11150
H           0.27295        -0.55446         1.09989
H           2.30143         0.36345        -0.81500
H           2.58438        -1.09619         0.12101
H           2.57585         0.37647         2.19647
H           2.48596         1.79553         1.16052
H           4.78350        -0.24012         1.17602
H           6.06258         1.48406        -0.13690
H           4.62108         2.48125        -0.23986
H           3.61910         0.77617        -1.72673
H           4.94771        -0.33981        -1.42041
H           4.85783         2.40444        -2.78913
H           4.87144         0.83745        -3.60058
H           6.32386         1.38329        -2.72076
H           4.56791         1.09221         3.27190
H           4.58427         2.58817         2.34569
H           6.91083         2.05292         1.54646
H           6.86191         0.54031         2.45491
H           6.61628         1.89006         4.56117
H           6.61171         3.37292         3.59780
H           8.89427         2.80720         2.70651
H           8.91012         1.33811         3.65750
H           8.70151         2.68723         5.76000
H           8.69709         4.18162         4.78123
H          11.84474         3.77711         5.79413

