%chk=CCCCCC1OCqCOCqCrCrCqCrCC2qCrCC12.chk
%NProcShared=20
# opt freq b3lyp/6-31g(2df,p)

Title Card Required 

0  1
C           1.01256         0.07012        -0.07228
C           2.52723         0.06518        -0.05585
C           3.05771        -0.31368         1.32306
C           4.57878        -0.37184         1.27808
C           5.16838        -0.89443         2.57206
C           6.70688        -0.81211         2.64587
O           7.19658        -1.67070         3.67126
C           8.49954        -1.34462         4.14125
C           8.87782        -2.13001         5.39790
O          10.29150        -1.96655         5.63616
C          10.74198        -2.58857         6.83969
C          10.60540        -4.10226         6.73853
C          12.20987        -2.22624         7.07120
C           8.80546         0.16487         4.33531
C           7.68443         1.16382         4.70777
C           9.58175         0.56444         3.09469
C           8.78275         0.53415         1.78527
C           8.80354         1.90986         1.17404
C           9.01841        -0.74165         0.99815
C           7.57525        -0.51513         1.44744
H           0.64719         0.32876        -1.06996
H           0.61949         0.80049         0.64122
H           0.62100        -0.91716         0.19216
H           2.90468         1.05364        -0.34381
H           2.89494        -0.65012        -0.80142
H           2.65692        -1.28863         1.62348
H           2.72544         0.41861         2.07005
H           4.96841         0.63238         1.06823
H           4.88497        -1.03453         0.46367
H           4.78286        -1.88281         2.84100
H           4.78634        -0.24831         3.38697
H           6.69698         0.16365         3.04924
H           9.18374        -1.77279         3.40315
H           8.65311        -3.18338         5.21314
H           8.30264        -1.78396         6.26080
H          10.15401        -2.19706         7.67702
H          11.14932        -4.47742         5.86417
H           9.56170        -4.40210         6.61399
H          10.98197        -4.59433         7.63765
H          12.84132        -2.56320         6.24094
H          12.58087        -2.68772         7.99328
H          12.34546        -1.14250         7.15150
H           9.51178         0.26015         5.16695
H           7.12507         1.60398         3.87274
H           8.11296         2.05949         5.16252
H           6.97071         0.71304         5.40384
H          10.46814        -0.07493         2.98713
H          10.00630         1.56276         3.28678
H           9.77705         2.38885         1.38442
H           8.06010         2.54342         1.67813
H           8.66648         1.95307         0.09825
H           9.54181        -1.58127         1.39618
H           9.19986        -0.62332        -0.06691
H           7.01016        -0.65166         0.54316

