%chk=CCCqOrCqNrCqOrCC1CCqCrCCqCrC1.chk
%NProcShared=20
# opt freq b3lyp/6-31g(2df,p)

Title Card Required 

0  1
C           0.87702         0.10054        -0.09772
C           2.39333         0.06827        -0.09821
C           2.88116        -1.38194        -0.15171
O           2.33851        -1.96056        -1.34095
C           4.41641        -1.47950        -0.13701
N           4.99493        -0.80614         1.05470
C           4.90741        -2.98564        -0.26916
O           4.44203        -3.61877        -1.46017
C           6.41059        -2.93431        -0.38392
C           7.40421        -4.09574        -0.16372
C           8.15675        -3.65162         1.09524
C           7.35268        -4.10617         2.32470
C           7.78488        -3.32436         3.54710
C           7.57138        -5.60221         2.46509
C           6.94166        -6.32764         1.26644
C           7.41824        -7.79214         1.31482
C           7.29167        -5.64768        -0.08370
H           0.52000         1.13084        -0.05699
H           0.49393        -0.44251         0.77203
H           0.47337        -0.36857        -1.00011
H           2.75129         0.58241         0.79977
H           2.76796         0.62148        -0.96871
H           2.48590        -1.94004         0.70249
H           2.82893        -1.62092        -2.09631
H           4.79213        -0.93856        -1.01805
H           4.64337        -1.23393         1.90988
H           4.73996         0.18031         1.09106
H           4.56524        -3.55447         0.59734
H           4.80351        -3.14156        -2.21309
H           6.70254        -2.13566         0.30193
H           6.66099        -2.47675        -1.35233
H           8.03010        -3.98400        -1.05954
H           8.31373        -2.56693         1.12774
H           9.16584        -4.07083         1.07529
H           6.27333        -3.93414         2.19927
H           8.87330        -3.32228         3.63787
H           7.34821        -3.74058         4.45876
H           7.44366        -2.28670         3.45371
H           7.15010        -5.98506         3.40175
H           8.65173        -5.80112         2.50545
H           5.85056        -6.31955         1.37397
H           8.51367        -7.85757         1.27451
H           7.01659        -8.38108         0.48608
H           7.10588        -8.26885         2.25248
H           6.73406        -6.09488        -0.91306
H           8.33493        -5.96771        -0.26339

