%chk=CCCqCrCCCONCqCrqCrCC.chk
%NProcShared=20
# opt freq b3lyp/6-31g(2df,p)

Title Card Required 

0  1
C           0.91699        -0.05953         0.16313
C           2.43559        -0.05520         0.06803
C           2.95151        -0.58538        -1.28273
C           2.42984         0.25946        -2.45084
C           4.48986        -0.61578        -1.26418
C           5.07734        -1.19183        -2.54665
C           6.59162        -1.18419        -2.50953
O           7.03440        -1.78129        -3.72322
N           8.48506        -1.70628        -3.78963
C           8.86451        -2.26357        -5.10773
C           8.31658        -3.69863        -5.25001
C           8.30839        -1.36666        -6.22913
C          10.41376        -2.26891        -5.12818
C          11.03254        -2.81639        -6.40855
H           0.59591         0.28866         1.14851
H           0.52267        -1.06835         0.00616
H           0.46474         0.60694        -0.57640
H           2.83605        -0.67456         0.88089
H           2.80584         0.96353         0.23705
H           2.58975        -1.61437        -1.41068
H           2.78125         1.29335        -2.36883
H           1.33842         0.26614        -2.49097
H           2.75345        -0.13664        -3.41663
H           4.83299        -1.22194        -0.41502
H           4.88123         0.39712        -1.10513
H           4.76789        -0.61577        -3.42517
H           4.70818        -2.21261        -2.71117
H           6.95705        -1.77526        -1.66246
H           6.96752        -0.15695        -2.43270
H           8.76187        -2.38550        -3.07178
H           7.22166        -3.72565        -5.21368
H           8.69145        -4.34424        -4.44647
H           8.60293        -4.14915        -6.20415
H           7.21392        -1.32298        -6.21543
H           8.59028        -1.74054        -7.21875
H           8.68524        -0.34119        -6.14003
H          10.79197        -2.86517        -4.28563
H          10.79021        -1.24825        -4.97328
H          10.74203        -3.85602        -6.58221
H          12.12358        -2.78828        -6.34089
H          10.74122        -2.22407        -7.28004

