%chk=CCCqdOrOCqCOrCqCrC.chk
%NProcShared=20
# opt freq b3lyp/6-31g(2df,p)

Title Card Required 

0  1
C           1.08102         0.03503         0.10738
C           2.60527        -0.02479         0.05549
C           3.04291        -0.98413        -1.02906
O           2.28004        -1.77068        -1.58848
O           4.38458        -0.91468        -1.27938
C           4.87099        -1.79683        -2.33619
C           4.41087        -1.27168        -3.72051
O           3.00969        -1.28501        -3.94984
C           6.42873        -1.84773        -2.29838
C           6.95632        -2.37406        -0.96120
C           7.00975        -2.72134        -3.42269
H           0.73044         0.67636         0.92096
H           0.65813        -0.96477         0.25961
H           0.67593         0.42115        -0.83504
H           2.98857        -0.38643         1.01506
H           2.99983         0.97928        -0.13460
H           4.47958        -2.80620        -2.14845
H           4.82013        -1.88311        -4.52252
H           4.75290        -0.24048        -3.85022
H           2.62272        -2.01043        -3.41765
H           6.81321        -0.82584        -2.41843
H           6.62044        -3.40150        -0.78560
H           6.62476        -1.75269        -0.12523
H           8.05338        -2.37803        -0.95631
H           6.64474        -3.75122        -3.34293
H           8.10347        -2.74082        -3.38551
H           6.75359        -2.34753        -4.41722

