%chk=CCCqCCCCqCrqCrCdOrOC.chk
%NProcShared=20
# opt freq b3lyp/6-31g(2df,p)

Title Card Required 

0  1
C           1.08217        -0.19396        -0.33270
C           2.58274         0.01689        -0.12248
C           3.04946         1.45091         0.26030
C           2.57871         1.91673         1.65274
C           1.08993         2.02778         1.72882
C           0.51327         2.44811         3.05586
C          -1.03340         2.36505         2.99368
C          -1.57281         3.32476         1.92332
C          -1.54553         0.93785         2.69957
C          -1.57470         2.77795         4.35111
O          -2.76441         2.85087         4.61197
O           4.49062         1.45697         0.24396
C           5.04948         2.75174         0.46159
H           0.86740        -1.14482        -0.82255
H           0.63840         0.62339        -0.91076
H           0.54096        -0.31412         0.60235
H           3.07876        -0.26898        -1.05833
H           2.94348        -0.69300         0.63161
H           2.70085         2.14174        -0.51956
H           2.96499         2.90787         1.89656
H           2.96385         1.23039         2.41493
H           0.71573         1.03373         1.64751
H           0.73263         2.63219         0.89045
H           0.86077         3.45223         3.32525
H           0.89123         1.76431         3.82924
H          -1.27879         3.02200         0.91161
H          -1.19931         4.34053         2.09118
H          -2.66531         3.35651         1.92739
H          -1.27002         0.58872         1.69865
H          -2.63893         0.89211         2.73403
H          -1.15873         0.21494         3.42700
H          -0.81663         3.00335         5.12483
H           6.13582         2.68897         0.38267
H           4.84263         3.11261         1.47257
H           4.66687         3.46451        -0.27474

