%chk=CCdCCqCrqCOrCCCC.chk
%NProcShared=20
# opt freq b3lyp/6-31g(2df,p)

Title Card Required 

0  1
C           0.99111        -0.03523        -0.09805
C           2.47512        -0.00914        -0.09958
C           3.23726         0.06523        -1.20799
C           4.76457         0.05056        -1.18556
C           5.25735         1.26557        -0.36821
C           5.28657        -1.28957        -0.57927
O           4.91627        -1.50993         0.77835
C           5.28801         0.17817        -2.65060
C           6.81706         0.18918        -2.74079
C           7.32543         0.31660        -4.16562
C           8.84596         0.31465        -4.15176
H           0.63564        -0.13628         0.93309
H           0.61777        -0.89062        -0.66726
H           0.58913         0.89499        -0.50627
H           2.94265        -0.08664         0.87661
H           2.74145         0.13014        -2.17457
H           4.87562         1.26668         0.65665
H           4.93884         2.20624        -0.83438
H           6.34778         1.28419        -0.28617
H           6.37749        -1.32870        -0.58521
H           4.92320        -2.14065        -1.16761
H           5.17551        -0.72277         1.28304
H           4.89903         1.09914        -3.10782
H           4.90044        -0.65095        -3.25929
H           7.22890        -0.73340        -2.32187
H           7.22426         1.02137        -2.15853
H           6.95746         1.24577        -4.61297
H           6.95766        -0.51931        -4.77012
H           9.22952         1.14993        -3.55531
H           9.23805         0.40489        -5.16674
H           9.22913        -0.61336        -3.71271

