%chk=CCqOrdCCqCrCCCCqCrC.chk
%NProcShared=20
# opt freq b3lyp/6-31g(2df,p)

Title Card Required 

0  1
C           0.97875        -0.00982        -0.06093
C           2.46968         0.01664        -0.03528
O           3.12213        -0.97015         0.67313
C           3.17858         0.95597        -0.68475
C           4.68429         0.96699        -0.73713
C           5.21011        -0.31334        -1.41022
C           5.17912         2.22380        -1.47710
C           6.69937         2.27284        -1.48344
C           7.24184         3.46080        -2.25669
C           8.77802         3.44098        -2.28520
C           9.32979         2.17267        -2.94617
C           9.28310         4.66982        -3.03278
H           0.58500        -0.87912         0.47355
H           0.61447        -0.06011        -1.09257
H           0.57895         0.89121         0.41273
H           2.48561        -1.64621         0.95691
H           2.64796         1.74331        -1.21475
H           5.06341         1.01658         0.29289
H           4.88552        -0.36373        -2.45516
H           4.86899        -1.22228        -0.91033
H           6.30067        -0.37392        -1.38306
H           4.78698         3.13169        -1.00087
H           4.80949         2.22128        -2.51133
H           7.06603         1.36900        -1.96746
H           7.08306         2.27710        -0.45615
H           6.88386         4.38922        -1.79553
H           6.85000         3.43849        -3.28160
H           9.14896         3.48251        -1.25273
H           8.95424         2.07197        -3.97018
H           9.05488         1.26733        -2.39634
H          10.42268         2.19255        -2.97745
H           8.93352         4.66461        -4.07087
H          10.37676         4.69462        -3.03968
H           8.92416         5.58827        -2.55754

