%chk=CCtCCtCCC1qCrNC1C.chk
%NProcShared=20
# opt freq b3lyp/6-31g(2df,p)

Title Card Required 

0  1
C           3.44822         0.06293        -0.00419
C           2.00749        -0.02076        -0.00406
C           0.81375        -0.06056         0.00156
C          -0.67914        -0.04921         0.03531
C          -1.86967         0.02534         0.08580
C          -3.30241         0.09873         0.15258
C          -3.80160         0.68550        -1.15273
C          -4.97981        -0.13335        -1.60012
N          -3.86153         2.15726        -1.30563
C          -2.90438         1.46651        -2.15372
C          -3.09624         1.48788        -3.62848
H           3.77324         0.82497         0.70790
H           3.79836         0.33311        -1.00252
H           3.87433        -0.90098         0.28035
H          -3.67322         0.65269         1.01693
H          -3.65755        -0.93575         0.24388
H          -5.57823        -0.38629        -0.71207
H          -4.59913        -1.08063        -1.99744
H          -5.65174         0.33515        -2.31696
H          -3.36571         2.64603        -0.55515
H          -1.85026         1.60080        -1.93082
H          -4.14745         1.53267        -3.92242
H          -2.64062         0.59618        -4.06932
H          -2.58696         2.35818        -4.06382

