%chk=CdC1CNqCrCCqdOrCNqCrN1.chk
%NProcShared=20
# opt freq b3lyp/6-31g(2df,p)

Title Card Required 

0  1
C           1.13173        -0.05993         0.23512
C           2.47222        -0.12342         0.13183
C           3.29571         1.17334         0.01973
N           3.81947         1.46888        -1.32942
C           4.39536         2.80520        -1.41273
C           2.82390         1.25716        -2.39174
C           3.12636        -0.03915        -3.13526
O           3.53453        -0.02726        -4.30861
C           2.81835        -1.34498        -2.42717
N           3.77186        -1.53509        -1.31150
C           4.36373        -2.87078        -1.38715
N           3.06574        -1.37884        -0.07497
H           0.60056         0.88483         0.24200
H           0.54045        -0.96893         0.17932
H           4.13239         1.11434         0.72910
H           2.67625         2.01755         0.35616
H           5.19380         2.93957        -0.67587
H           3.63974         3.58349        -1.25922
H           4.85144         2.96162        -2.39815
H           2.83173         2.06683        -3.13217
H           1.79087         1.22779        -2.03106
H           2.86032        -2.15808        -3.15974
H           1.77117        -1.31227        -2.10552
H           4.83751        -3.01918        -2.36594
H           3.61472        -3.65642        -1.24429
H           5.15557        -2.99565        -0.64047
H           3.63409        -1.63564         0.73846

