%chk=CdCqCrCqOrCCCCCCdCC.chk
%NProcShared=20
# opt freq b3lyp/6-31g(2df,p)

Title Card Required 

0  1
C           0.91788         0.04499        -0.07121
C           2.26223         0.06175        -0.06261
C           3.00806         1.01576         0.83152
C           3.05084        -0.89194        -0.93694
O           2.68227        -0.67351        -2.29813
C           4.56560        -0.74514        -0.79684
C           5.32509        -1.71079        -1.69007
C           6.82020        -1.50455        -1.49650
C           7.59309        -2.46164        -2.38587
C           9.09209        -2.26387        -2.20359
C           9.85287        -3.20740        -3.07882
C          11.19348        -3.24287        -3.11177
C          11.95630        -4.18140        -3.98210
H           0.33555         0.71289         0.55384
H           0.37335        -0.64357        -0.71188
H           2.33347         1.64615         1.41773
H           3.64243         1.68321         0.23875
H           3.63718         0.46826         1.54131
H           2.77168        -1.92320        -0.68702
H           2.91370         0.24573        -2.51102
H           4.86376        -0.91960         0.24412
H           4.86998         0.27382        -1.06829
H           5.06391        -1.54411        -2.74144
H           5.05104        -2.74260        -1.44095
H           7.08807        -1.66872        -0.44526
H           7.08867        -0.46859        -1.73963
H           7.31489        -2.29328        -3.43429
H           7.31520        -3.49467        -2.14036
H           9.35721        -2.43680        -1.15357
H           9.35650        -1.22976        -2.45563
H           9.28407        -3.88718        -3.70942
H          11.76729        -2.56595        -2.48407
H          11.29337        -4.82043        -4.57460
H          12.59040        -4.82520        -3.36637
H          12.59038        -3.61595        -4.67049

