%chk=CdCqCrC1CdCCdCqCCrN1.chk
%NProcShared=20
# opt freq b3lyp/6-31g(2df,p)

Title Card Required 

0  1
C           0.94524         0.08886         0.14775
C           2.29351         0.03040         0.16893
C           2.96860        -1.27474        -0.22420
C           3.25162         1.19767         0.46760
C           4.35467         1.11562        -0.55792
C           4.18056         1.66699        -1.77169
C           3.18523         2.70411        -1.94461
C           2.56659         3.20923        -0.86464
C           1.86483         4.55258        -0.94984
C           1.46671         5.15593         0.39223
N           2.62192         2.52491         0.36050
H           0.36059        -0.77763        -0.14284
H           0.40943         1.00010         0.37970
H           2.26195        -2.08409        -0.42135
H           3.65505        -1.59755         0.56556
H           3.54563        -1.16295        -1.15161
H           3.63542         1.08518         1.48941
H           5.12656         0.37339        -0.39102
H           4.79729         1.37981        -2.61157
H           3.08751         3.15193        -2.92853
H           0.97005         4.44363        -1.57167
H           2.52184         5.27525        -1.45759
H           0.81543         4.47280         0.94620
H           0.92297         6.09446         0.24649
H           2.34713         5.37265         1.00804
H           2.90779         3.14493         1.11379

