%chk=CNCCCqOrCC1CC1qCNrCNC.chk
%NProcShared=20
# opt freq b3lyp/6-31g(2df,p)

Title Card Required 

0  1
C           1.02622        -0.04657        -0.02443
N           2.48096        -0.01664        -0.00739
C           3.00532        -1.16493        -0.73948
C           4.53725        -1.10597        -0.74557
C           5.04256        -2.30698        -1.51847
O           4.53272        -2.23534        -2.85085
C           6.54033        -2.49518        -1.55712
C           6.99537        -3.70909        -2.32991
C           7.04501        -5.04409        -1.63073
C           6.20401        -4.93285        -2.89334
C           4.69818        -5.21839        -2.84028
N           3.90788        -5.00190        -1.64600
C           6.78392        -5.52562        -4.19323
N           5.84803        -5.20871        -5.26413
C           6.09790        -5.88167        -6.51188
H           0.64434         0.82744         0.50817
H           0.63936        -0.94578         0.46619
H           0.64275        -0.00706        -1.04969
H           2.81249        -0.06017         0.95470
H           2.62228        -1.15863        -1.76785
H           2.66914        -2.10181        -0.27251
H           4.92109        -1.13677         0.28131
H           4.87796        -0.18050        -1.21972
H           4.64158        -3.14817        -0.97146
H           4.98176        -1.50654        -3.30196
H           6.94444        -2.53681        -0.53692
H           6.99001        -1.61026        -2.02564
H           7.89610        -3.43160        -2.87774
H           6.55055        -5.13126        -0.66909
H           7.98675        -5.58434        -1.66600
H           4.55948        -6.27540        -3.09836
H           4.21534        -4.63955        -3.63422
H           4.14194        -5.63225        -0.90640
H           2.92188        -5.10939        -1.90195
H           6.87594        -6.60982        -4.05928
H           7.77797        -5.12288        -4.41959
H           5.75387        -4.20064        -5.37443
H           6.11781        -6.96770        -6.37883
H           7.03108        -5.54471        -6.96635
H           5.27567        -5.65842        -7.20017

