%chk=COC1CCCCCqCCqCrNrCC1.chk
%NProcShared=20
# opt freq b3lyp/6-31g(2df,p)

Title Card Required 

0  1
C           0.93970         0.02927        -0.05049
O           2.32947         0.09024        -0.30069
C           2.96452         1.37450        -0.26851
C           2.14843         2.55593        -0.80679
C           2.95973         3.84090        -1.00574
C           3.53268         4.58469         0.21267
C           2.64442         4.68486         1.45861
C           2.87728         3.62810         2.57364
C           4.27892         3.73464         3.22055
C           4.62036         2.71164         4.33282
C           4.83364         1.24727         3.93024
N           5.90637         3.12771         4.91037
C           2.51857         2.21748         2.11386
C           3.52197         1.59301         1.13014
H           0.67539        -1.01528         0.13788
H           0.40113         0.36447        -0.93862
H           0.63297         0.60556         0.82241
H           3.82834         1.24495        -0.93317
H           1.26847         2.76745        -0.19206
H           1.72741         2.26024        -1.77483
H           2.31772         4.54491        -1.54885
H           3.79662         3.61907        -1.68056
H           3.73966         5.61027        -0.12520
H           4.52120         4.19083         0.45876
H           1.58768         4.68645         1.16160
H           2.81477         5.67257         1.91002
H           2.15437         3.88070         3.36415
H           4.33996         4.74493         3.65553
H           5.06486         3.71022         2.45804
H           3.84950         2.76567         5.11140
H           5.53493         1.16050         3.09254
H           3.91997         0.71452         3.67701
H           5.23411         0.66207         4.76443
H           6.62430         3.04369         4.18077
H           6.17834         2.45685         5.62327
H           1.49927         2.22748         1.73120
H           2.40654         1.58965         2.99861
H           3.85421         0.61991         1.50827
H           4.43748         2.18604         1.05067

