%chk=COC1CCqOrC1qCrCCCCdCqCrO.chk
%NProcShared=20
# opt freq b3lyp/6-31g(2df,p)

Title Card Required 

0  1
C           0.88509         0.25290        -0.09627
O           2.29246         0.07842        -0.09633
C           2.82136        -1.11001         0.52963
C           1.95682        -1.88056         1.55861
C           2.58195        -3.18435         1.02419
O           3.71348        -3.67750         1.77462
C           2.86839        -2.43028        -0.32442
C           1.78408        -2.60539        -1.40240
C           4.23555        -2.75782        -0.93328
C           4.44877        -1.93923        -2.20447
C           5.75311        -2.30141        -2.85998
C           5.94626        -1.52787        -4.12820
C           7.04288        -1.71077        -4.88603
C           8.12470        -2.68117        -4.53013
O           7.24448        -1.01110        -6.05138
H           0.63575         1.17507        -0.62043
H           0.51330         0.30805         0.92965
H           0.39807        -0.56925        -0.61785
H           3.80586        -0.86011         0.95655
H           0.87365        -1.85101         1.40233
H           2.15158        -1.63885         2.60755
H           1.84924        -3.99271         0.93065
H           4.32830        -2.92990         1.87232
H           0.76657        -2.55872        -1.01794
H           1.90061        -3.56886        -1.91062
H           1.86428        -1.81738        -2.16313
H           4.27521        -3.82930        -1.17163
H           5.05070        -2.56427        -0.22552
H           4.39694        -0.86770        -1.97979
H           3.67255        -2.15515        -2.94519
H           5.72930        -3.37462        -3.09144
H           6.57297        -2.10427        -2.16146
H           5.17582        -0.82359        -4.42661
H           7.92265        -3.23374        -3.60709
H           9.06730        -2.15045        -4.37919
H           8.23575        -3.42575        -5.32176
H           6.49656        -0.40547        -6.19109

