%chk=COCCC1CC2CCqCrCqCrqC1rC2.chk
%NProcShared=20
# opt freq b3lyp/6-31g(2df,p)

Title Card Required 

0  1
C           0.81731         0.02070         0.00811
O           2.23670         0.01566         0.02663
C           2.71983        -0.94549        -0.90423
C           4.23183        -0.94226        -0.85541
C           4.85355        -2.03336        -1.71441
C           4.71009        -3.46903        -1.12125
C           5.10439        -4.57860        -2.13981
C           4.04972        -4.97962        -3.21708
C           4.39157        -4.14685        -4.51085
C           5.05433        -4.95214        -5.63016
C           5.31350        -3.06559        -3.91867
C           6.31161        -2.25084        -4.72846
C           4.36760        -2.08639        -3.14549
C           6.17696        -3.97445        -2.98665
H           0.46538         0.76450         0.72602
H           0.43589        -0.96351         0.29503
H           0.45703         0.28623        -0.98989
H           2.37403        -0.67682        -1.90695
H           2.33042        -1.93249        -0.64171
H           4.58889        -1.04280         0.17358
H           4.59476         0.03815        -1.19490
H           5.91726        -1.75920        -1.74711
H           3.70609        -3.65777        -0.73439
H           5.39909        -3.52063        -0.27196
H           5.43983        -5.47506        -1.58672
H           3.03555        -4.75704        -2.85561
H           4.08633        -6.05092        -3.42557
H           3.45327        -3.74662        -4.92564
H           6.10947        -5.16706        -5.43694
H           5.02417        -4.37299        -6.56030
H           4.54949        -5.90406        -5.80368
H           5.85440        -1.48434        -5.34899
H           6.96145        -2.88665        -5.33904
H           6.97520        -1.72799        -4.02019
H           3.32115        -2.44203        -3.14921
H           4.30767        -1.10313        -3.62800
H           6.93916        -3.43359        -2.40875
H           6.72946        -4.74206        -3.53998

