%chk=COCCC1CqCOCrNCqdOrC1N.chk
%NProcShared=20
# opt freq b3lyp/6-31g(2df,p)

Title Card Required 

0  1
C           0.86631         0.04345         0.01013
O           2.28161         0.00403        -0.03126
C           2.73592         0.03498        -1.38021
C           4.24445         0.00580        -1.34290
C           4.85174         0.12368        -2.74065
C           5.79793         1.31359        -2.99112
C           6.74095         1.64487        -1.81211
O           6.01312         2.25871        -0.75296
C           6.74140         2.28470         0.46531
N           6.54328         0.84158        -4.13520
C           6.77693        -0.51892        -4.04185
O           7.67482        -1.11047        -4.62429
C           5.73180        -1.10310        -3.08689
N           4.94933        -2.15951        -3.73987
H           0.54740         0.02198         1.05369
H           0.46450        -0.83122        -0.50771
H           0.50134         0.96272        -0.45774
H           2.39698         0.96301        -1.85635
H           2.35145        -0.83045        -1.92658
H           4.60006        -0.88626        -0.81447
H           4.50484         0.82704        -0.68690
H           4.04654         0.19856        -3.49000
H           5.22731         2.20419        -3.27863
H           7.50939         2.35457        -2.13119
H           7.23862         0.73058        -1.46481
H           6.05496         2.55074         1.27486
H           7.51888         3.04500         0.38756
H           7.17879         1.30764         0.69960
H           7.10503         1.41516        -4.75269
H           6.24646        -1.49982        -2.20529
H           4.55724        -1.80047        -4.61114
H           4.16703        -2.43629        -3.15298

