%chk=CONCqCqCrOrCqNrCOCqCrCqCrC.chk
%NProcShared=20
# opt freq b3lyp/6-31g(2df,p)

Title Card Required 

0  1
C           0.88890         0.07766         0.01417
O           2.30257        -0.03270        -0.13775
N           2.77735        -1.03164         0.80825
C           4.26896        -0.95579         0.83285
C           4.78959         0.43631         1.39077
C           6.29730         0.70233         1.35732
O           4.27412         1.53283         0.61049
C           4.74260        -2.24413         1.62177
N           4.20471        -3.50109         1.05195
C           6.26459        -2.32302         1.64839
O           6.83444        -3.36696         2.41667
C           8.27292        -3.26699         2.44555
C           8.77041        -1.93089         3.02957
C           8.77864        -4.45482         3.27723
C           8.23469        -5.76977         2.71067
C          10.30477        -4.49133         3.31620
H           0.54232         0.93129        -0.57255
H           0.60407         0.22476         1.06166
H           0.41991        -0.83087        -0.37731
H           2.52625        -1.88799         0.31694
H           4.60963        -1.04848        -0.20820
H           4.42659         0.57078         2.41414
H           6.74304         0.34374         0.42253
H           6.82434         0.28610         2.21201
H           6.51546         1.77241         1.42835
H           4.44724         1.32771        -0.31839
H           4.38259        -2.18607         2.65667
H           4.48678        -3.60708         0.08566
H           3.18722        -3.49834         1.10495
H           6.54304        -1.45933         2.20818
H           6.68914        -2.30863         0.63849
H           8.63876        -3.35951         1.41422
H           8.35224        -1.75996         4.02737
H           8.48721        -1.08159         2.40450
H           9.85884        -1.87277         3.07929
H           8.39442        -4.35392         4.30139
H           8.55593        -5.90801         1.67279
H           7.13942        -5.79240         2.72785
H           8.58775        -6.62025         3.30018
H          10.71471        -4.54667         2.30199
H          10.66045        -5.35252         3.88625
H          10.72028        -3.60219         3.79904

