%chk=CtCCqCCrCNCCCqOrOCC.chk
%NProcShared=20
# opt freq b3lyp/6-31g(2df,p)

Title Card Required 

0  1
C           0.95205        -0.08762        -0.00485
C           2.25591        -0.08762        -0.00485
C           3.77591        -0.08762        -0.00485
C           4.25773         1.28999        -0.51799
C           3.77728         1.60194        -1.92874
C           4.29688        -0.38372         1.40629
N           5.76333        -0.40271         1.43466
C           6.24092        -0.67369         2.78370
C           7.76580        -0.67563         2.78845
C           8.27167        -0.98130         4.19208
O           7.78955        -2.24711         4.61363
O           9.69125        -0.99206         4.19781
C          10.19199        -1.21163         5.51564
C          11.70366        -1.20025         5.47466
H          -0.11368        -0.08849        -0.00712
H           4.11823        -0.86980        -0.69493
H           5.35175         1.33279        -0.53609
H           3.91904         2.08288         0.16197
H           4.12742         0.83905        -2.63050
H           4.16818         2.57171        -2.25068
H           2.68617         1.65106        -1.98428
H           3.90930        -1.35757         1.73259
H           3.91516         0.36974         2.10802
H           6.12838         0.50120         1.13721
H           5.85990        -1.64609         3.11413
H           5.87304         0.09299         3.47628
H           8.16234         0.29094         2.44974
H           8.14191        -1.42695         2.08126
H           7.90754        -0.21290         4.88404
H           8.08584        -2.86868         3.93051
H           9.85459        -2.18630         5.88410
H           9.82635        -0.42744         6.18731
H          12.07545        -1.95929         4.77876
H          12.11208        -1.40062         6.46892
H          12.07387        -0.23171         5.12530

