%chk=Oc1ncc2cqcccnc[nH]o1rCdC2.chk
%NProcShared=20
# opt freq b3lyp/6-31g(2df,p)

Title Card Required 

0  1
O           1.87671        -0.58987        -0.90416
C           3.23372        -0.49415        -0.73720
N           3.30578         0.17282         0.42622
C           4.45817         0.51193         1.01774
C           5.21359         1.06535         1.98309
C           6.67271         1.08582         2.01881
C           7.66682         0.63813         1.23788
C           7.38881        -0.03894         0.05684
C           7.94762        -0.62740        -0.96964
N           6.86714        -1.01732        -1.64978
C           6.57314        -1.60226        -2.67011
N           5.21797        -1.71730        -2.87079
O           3.91707        -1.19794        -1.96485
C           6.62116         1.79195         3.25052
C           5.25314         1.78138         3.23209
H           1.50832        -0.13185        -0.10523
H           5.03567         0.10214         0.30293
H           8.71679         0.73739         1.41103
H           6.36770        -0.14590        -0.12974
H           8.97432        -0.75902        -1.19922
H           7.35551        -2.01511        -3.39027
H           4.99596        -2.21340        -3.73615
H           7.47437         2.12667         3.83439
H           4.45950         2.14867         3.87276

