%chk=OCCNSC1CCdCCdCNCC1.chk
%NProcShared=20
# opt freq b3lyp/6-31g(2df,p)

Title Card Required 

0  1
O           1.13798         0.10717        -0.00323
C           2.58352         0.09776         0.00213
C           3.21179         1.50918         0.42698
N           4.84534         1.65107         0.39071
S           5.72706         3.32089         0.28893
C           7.98006         3.61546         0.57787
C           7.49566         4.64070         1.55592
C           8.73875         4.49209         2.27289
C           9.43541         5.57787         2.50779
C          10.77477         5.20365         2.78301
C          11.69231         6.16126         2.77475
N          12.35845         5.65883         1.68277
C          11.30396         5.77089         0.37823
C           9.65020         4.49064         0.01838
H           0.81947        -0.78099        -0.26704
H           2.88415        -0.17016        -1.01450
H           2.88287        -0.69605         0.69223
H           2.78422         1.72144         1.42221
H           2.75183         2.22991        -0.26463
H           4.99754         1.26001        -0.54149
H           8.06290         2.62923         1.13886
H           6.75489         4.52075         2.35005
H           7.19414         5.45453         0.87162
H           9.31896         3.53386         2.20025
H           9.06940         6.53220         2.12885
H          11.12442         4.28620         2.18398
H          11.28685         7.20060         2.71664
H          13.39406         5.74243         1.71913
H          12.12517         6.11174        -0.31182
H          11.09187         6.84525         0.63625
H          10.15560         3.54448        -0.19149
H           9.24124         4.86955        -0.90979

